*SPEF "ieee 1481-1999"
*DESIGN "tt_ctrl"
*DATE "12:24:17 Wednesday September 16, 2026"
*VENDOR "The OpenROAD Project"
*PROGRAM "OpenROAD"
*VERSION "341650e72dad0dc8571822ff8c5d9c5e365327f7"
*DESIGN_FLOW "NAME_SCOPE LOCAL" "PIN_CAP NONE"
*DIVIDER /
*DELIMITER :
*BUS_DELIMITER []
*T_UNIT 1 NS
*C_UNIT 1 PF
*R_UNIT 1 OHM
*L_UNIT 1 HENRY

*NAME_MAP
*3 ctrl_ena
*4 ctrl_sel_inc
*5 ctrl_sel_rst_n
*6 k_one
*7 k_zero
*8 pad_ui_in[0]
*9 pad_ui_in[1]
*10 pad_ui_in[2]
*11 pad_ui_in[3]
*12 pad_ui_in[4]
*13 pad_ui_in[5]
*14 pad_ui_in[6]
*15 pad_ui_in[7]
*16 pad_ui_in[8]
*17 pad_ui_in[9]
*18 pad_uio_in[0]
*19 pad_uio_in[1]
*20 pad_uio_in[2]
*21 pad_uio_in[3]
*22 pad_uio_in[4]
*23 pad_uio_in[5]
*24 pad_uio_in[6]
*25 pad_uio_in[7]
*26 uio_oe_obuf_I\[0\]\.z
*27 uio_oe_obuf_I\[1\]\.z
*28 uio_oe_obuf_I\[2\]\.z
*29 uio_oe_obuf_I\[3\]\.z
*30 uio_oe_obuf_I\[4\]\.z
*31 uio_oe_obuf_I\[5\]\.z
*32 uio_oe_obuf_I\[6\]\.z
*33 uio_oe_obuf_I\[7\]\.z
*34 uio_out_obuf_I\[0\]\.z
*35 uio_out_obuf_I\[1\]\.z
*36 uio_out_obuf_I\[2\]\.z
*37 uio_out_obuf_I\[3\]\.z
*38 uio_out_obuf_I\[4\]\.z
*39 uio_out_obuf_I\[5\]\.z
*40 uio_out_obuf_I\[6\]\.z
*41 uio_out_obuf_I\[7\]\.z
*42 uo_out_obuf_I\[0\]\.z
*43 uo_out_obuf_I\[1\]\.z
*44 uo_out_obuf_I\[2\]\.z
*45 uo_out_obuf_I\[3\]\.z
*46 uo_out_obuf_I\[4\]\.z
*47 uo_out_obuf_I\[5\]\.z
*48 uo_out_obuf_I\[6\]\.z
*49 uo_out_obuf_I\[7\]\.z
*50 genblk2\[0\]\.tie_guard_I\[0\]\.lo
*51 genblk2\[0\]\.sel_cnt_buf_I\[8\]\.z
*52 genblk2\[0\]\.pad_ui_in_buf_I\[0\]\.z
*53 genblk2\[0\]\.pad_ui_in_buf_I\[1\]\.z
*54 genblk2\[0\]\.pad_ui_in_buf_I\[2\]\.z
*55 genblk2\[0\]\.pad_ui_in_buf_I\[3\]\.z
*56 genblk2\[0\]\.pad_ui_in_buf_I\[4\]\.z
*57 genblk2\[0\]\.pad_ui_in_buf_I\[5\]\.z
*58 genblk2\[0\]\.pad_ui_in_buf_I\[6\]\.z
*59 genblk2\[0\]\.pad_ui_in_buf_I\[7\]\.z
*60 genblk2\[0\]\.pad_ui_in_buf_I\[8\]\.z
*61 genblk2\[0\]\.ctrl_ena_buf_I\.z
*62 genblk2\[0\]\.pad_ui_in_buf_I\[9\]\.z
*63 genblk2\[0\]\.pad_uio_in_buf_I\[0\]\.z
*64 genblk2\[0\]\.pad_uio_in_buf_I\[1\]\.z
*65 genblk2\[0\]\.pad_uio_in_buf_I\[2\]\.z
*66 genblk2\[0\]\.pad_uio_in_buf_I\[3\]\.z
*67 genblk2\[0\]\.pad_uio_in_buf_I\[4\]\.z
*68 genblk2\[0\]\.pad_uio_in_buf_I\[5\]\.z
*69 genblk2\[0\]\.pad_uio_in_buf_I\[6\]\.z
*70 genblk2\[0\]\.pad_uio_in_buf_I\[7\]\.z
*71 genblk2\[0\]\.tie_guard_I\[1\]\.lo
*72 genblk2\[0\]\.sel_cnt_buf_I\[0\]\.z
*73 genblk2\[0\]\.sel_cnt_buf_I\[1\]\.z
*74 genblk2\[0\]\.sel_cnt_buf_I\[2\]\.z
*75 genblk2\[0\]\.sel_cnt_buf_I\[3\]\.z
*76 genblk2\[0\]\.sel_cnt_buf_I\[4\]\.z
*77 genblk2\[0\]\.sel_cnt_buf_I\[5\]\.z
*78 genblk2\[0\]\.sel_cnt_buf_I\[6\]\.z
*79 genblk2\[0\]\.sel_cnt_buf_I\[7\]\.z
*80 spine_bot_ow[0]
*81 spine_bot_ow[10]
*82 spine_bot_ow[11]
*83 spine_bot_ow[12]
*84 spine_bot_ow[13]
*85 spine_bot_ow[14]
*86 spine_bot_ow[15]
*87 spine_bot_ow[16]
*88 spine_bot_ow[17]
*89 spine_bot_ow[18]
*90 spine_bot_ow[19]
*91 spine_bot_ow[1]
*92 spine_bot_ow[20]
*93 spine_bot_ow[21]
*94 spine_bot_ow[22]
*95 spine_bot_ow[23]
*96 spine_bot_ow[24]
*97 spine_bot_ow[25]
*98 spine_bot_ow[2]
*99 spine_bot_ow[3]
*100 spine_bot_ow[4]
*101 spine_bot_ow[5]
*102 spine_bot_ow[6]
*103 spine_bot_ow[7]
*104 spine_bot_ow[8]
*105 spine_bot_ow[9]
*106 genblk2\[1\]\.tie_guard_I\[0\]\.lo
*107 genblk2\[1\]\.sel_cnt_buf_I\[8\]\.z
*108 genblk2\[1\]\.pad_ui_in_buf_I\[0\]\.z
*109 genblk2\[1\]\.pad_ui_in_buf_I\[1\]\.z
*110 genblk2\[1\]\.pad_ui_in_buf_I\[2\]\.z
*111 genblk2\[1\]\.pad_ui_in_buf_I\[3\]\.z
*112 genblk2\[1\]\.pad_ui_in_buf_I\[4\]\.z
*113 genblk2\[1\]\.pad_ui_in_buf_I\[5\]\.z
*114 genblk2\[1\]\.pad_ui_in_buf_I\[6\]\.z
*115 genblk2\[1\]\.pad_ui_in_buf_I\[7\]\.z
*116 genblk2\[1\]\.pad_ui_in_buf_I\[8\]\.z
*117 genblk2\[1\]\.ctrl_ena_buf_I\.z
*118 genblk2\[1\]\.pad_ui_in_buf_I\[9\]\.z
*119 genblk2\[1\]\.pad_uio_in_buf_I\[0\]\.z
*120 genblk2\[1\]\.pad_uio_in_buf_I\[1\]\.z
*121 genblk2\[1\]\.pad_uio_in_buf_I\[2\]\.z
*122 genblk2\[1\]\.pad_uio_in_buf_I\[3\]\.z
*123 genblk2\[1\]\.pad_uio_in_buf_I\[4\]\.z
*124 genblk2\[1\]\.pad_uio_in_buf_I\[5\]\.z
*125 genblk2\[1\]\.pad_uio_in_buf_I\[6\]\.z
*126 genblk2\[1\]\.pad_uio_in_buf_I\[7\]\.z
*127 genblk2\[1\]\.tie_guard_I\[1\]\.lo
*128 genblk2\[1\]\.sel_cnt_buf_I\[0\]\.z
*129 genblk2\[1\]\.sel_cnt_buf_I\[1\]\.z
*130 genblk2\[1\]\.sel_cnt_buf_I\[2\]\.z
*131 genblk2\[1\]\.sel_cnt_buf_I\[3\]\.z
*132 genblk2\[1\]\.sel_cnt_buf_I\[4\]\.z
*133 genblk2\[1\]\.sel_cnt_buf_I\[5\]\.z
*134 genblk2\[1\]\.sel_cnt_buf_I\[6\]\.z
*135 genblk2\[1\]\.sel_cnt_buf_I\[7\]\.z
*136 spine_top_ow[0]
*137 spine_top_ow[10]
*138 spine_top_ow[11]
*139 spine_top_ow[12]
*140 spine_top_ow[13]
*141 spine_top_ow[14]
*142 spine_top_ow[15]
*143 spine_top_ow[16]
*144 spine_top_ow[17]
*145 spine_top_ow[18]
*146 spine_top_ow[19]
*147 spine_top_ow[1]
*148 spine_top_ow[20]
*149 spine_top_ow[21]
*150 spine_top_ow[22]
*151 spine_top_ow[23]
*152 spine_top_ow[24]
*153 spine_top_ow[25]
*154 spine_top_ow[2]
*155 spine_top_ow[3]
*156 spine_top_ow[4]
*157 spine_top_ow[5]
*158 spine_top_ow[6]
*159 spine_top_ow[7]
*160 spine_top_ow[8]
*161 spine_top_ow[9]
*162 ctrl_ena_ibuf
*163 ctrl_ibuf_I\[1\]\.z
*164 ctrl_ibuf_I\[2\]\.z
*165 genblk1\[0\]\.pull
*166 genblk1\[0\]\.tbuf_pol_spine_ow_I\.tx
*167 genblk1\[0\]\.tbuf_spine_ow_I\[0\]\.a
*168 genblk1\[0\]\.tie_I\.hi
*169 genblk1\[1\]\.pull
*170 genblk1\[1\]\.tbuf_pol_spine_ow_I\.tx
*171 genblk1\[1\]\.tbuf_spine_ow_I\[0\]\.a
*172 genblk1\[1\]\.tie_I\.hi
*173 genblk2\[0\]\.ctrl_ena_buf_I\.a
*174 genblk2\[0\]\.pad_ui_in_buf_I\[0\]\.genblk1\.l
*175 genblk2\[0\]\.pad_ui_in_buf_I\[1\]\.genblk1\.l
*176 genblk2\[0\]\.pad_ui_in_buf_I\[2\]\.genblk1\.l
*177 genblk2\[0\]\.pad_ui_in_buf_I\[3\]\.genblk1\.l
*178 genblk2\[0\]\.pad_ui_in_buf_I\[4\]\.genblk1\.l
*179 genblk2\[0\]\.pad_ui_in_buf_I\[5\]\.genblk1\.l
*180 genblk2\[0\]\.pad_ui_in_buf_I\[6\]\.genblk1\.l
*181 genblk2\[0\]\.pad_ui_in_buf_I\[7\]\.genblk1\.l
*182 genblk2\[0\]\.pad_ui_in_buf_I\[8\]\.genblk1\.l
*183 genblk2\[0\]\.pad_ui_in_buf_I\[9\]\.genblk1\.l
*184 genblk2\[0\]\.pad_uio_in_buf_I\[0\]\.genblk1\.l
*185 genblk2\[0\]\.pad_uio_in_buf_I\[1\]\.genblk1\.l
*186 genblk2\[0\]\.pad_uio_in_buf_I\[2\]\.genblk1\.l
*187 genblk2\[0\]\.pad_uio_in_buf_I\[3\]\.genblk1\.l
*188 genblk2\[0\]\.pad_uio_in_buf_I\[4\]\.genblk1\.l
*189 genblk2\[0\]\.pad_uio_in_buf_I\[5\]\.genblk1\.l
*190 genblk2\[0\]\.pad_uio_in_buf_I\[6\]\.genblk1\.l
*191 genblk2\[0\]\.pad_uio_in_buf_I\[7\]\.genblk1\.l
*192 genblk2\[0\]\.sel_cnt_buf_I\[0\]\.a
*193 genblk2\[0\]\.sel_cnt_buf_I\[1\]\.a
*194 genblk2\[0\]\.sel_cnt_buf_I\[2\]\.a
*195 genblk2\[0\]\.sel_cnt_buf_I\[3\]\.a
*196 genblk2\[0\]\.sel_cnt_buf_I\[4\]\.a
*197 genblk2\[0\]\.sel_cnt_buf_I\[5\]\.a
*198 genblk2\[0\]\.sel_cnt_buf_I\[6\]\.a
*199 genblk2\[0\]\.sel_cnt_buf_I\[7\]\.a
*200 genblk2\[0\]\.sel_cnt_buf_I\[8\]\.a
*201 genblk2\[0\]\.tie_guard_I\[0\]\.hi
*202 genblk2\[0\]\.tie_guard_I\[1\]\.hi
*203 genblk2\[1\]\.ctrl_ena_buf_I\.a
*204 genblk2\[1\]\.pad_ui_in_buf_I\[0\]\.genblk1\.l
*205 genblk2\[1\]\.pad_ui_in_buf_I\[1\]\.genblk1\.l
*206 genblk2\[1\]\.pad_ui_in_buf_I\[2\]\.genblk1\.l
*207 genblk2\[1\]\.pad_ui_in_buf_I\[3\]\.genblk1\.l
*208 genblk2\[1\]\.pad_ui_in_buf_I\[4\]\.genblk1\.l
*209 genblk2\[1\]\.pad_ui_in_buf_I\[5\]\.genblk1\.l
*210 genblk2\[1\]\.pad_ui_in_buf_I\[6\]\.genblk1\.l
*211 genblk2\[1\]\.pad_ui_in_buf_I\[7\]\.genblk1\.l
*212 genblk2\[1\]\.pad_ui_in_buf_I\[8\]\.genblk1\.l
*213 genblk2\[1\]\.pad_ui_in_buf_I\[9\]\.genblk1\.l
*214 genblk2\[1\]\.pad_uio_in_buf_I\[0\]\.genblk1\.l
*215 genblk2\[1\]\.pad_uio_in_buf_I\[1\]\.genblk1\.l
*216 genblk2\[1\]\.pad_uio_in_buf_I\[2\]\.genblk1\.l
*217 genblk2\[1\]\.pad_uio_in_buf_I\[3\]\.genblk1\.l
*218 genblk2\[1\]\.pad_uio_in_buf_I\[4\]\.genblk1\.l
*219 genblk2\[1\]\.pad_uio_in_buf_I\[5\]\.genblk1\.l
*220 genblk2\[1\]\.pad_uio_in_buf_I\[6\]\.genblk1\.l
*221 genblk2\[1\]\.pad_uio_in_buf_I\[7\]\.genblk1\.l
*222 genblk2\[1\]\.tie_guard_I\[0\]\.hi
*223 genblk2\[1\]\.tie_guard_I\[1\]\.hi
*224 sel_cnt_gen\[0\]\.cnt_bit_I\.d
*225 sel_cnt_gen\[1\]\.cnt_bit_I\.d
*226 sel_cnt_gen\[2\]\.cnt_bit_I\.d
*227 sel_cnt_gen\[3\]\.cnt_bit_I\.d
*228 sel_cnt_gen\[4\]\.cnt_bit_I\.d
*229 sel_cnt_gen\[5\]\.cnt_bit_I\.d
*230 sel_cnt_gen\[5\]\.cnt_bit_I\.q
*231 sel_cnt_gen\[6\]\.cnt_bit_I\.d
*232 sel_cnt_gen\[7\]\.cnt_bit_I\.d
*233 sel_cnt_gen\[8\]\.cnt_bit_I\.d
*234 sel_cnt_gen\[9\]\.cnt_bit_I\.d
*235 side_ena0_buf_I\.a
*236 side_ena0_buf_I\.genblk1\.l
*237 side_ena1_buf_I\.genblk1\.l
*238 side_sel
*239 uio_oe_obuf_I\[0\]\.a
*240 uio_oe_obuf_I\[1\]\.a
*241 uio_oe_obuf_I\[2\]\.a
*242 uio_oe_obuf_I\[3\]\.a
*243 uio_oe_obuf_I\[4\]\.a
*244 uio_oe_obuf_I\[5\]\.a
*245 uio_oe_obuf_I\[6\]\.a
*246 uio_oe_obuf_I\[7\]\.a
*247 uio_oex_ibuf_I\[0\]\.z
*248 uio_oex_ibuf_I\[10\]\.z
*249 uio_oex_ibuf_I\[11\]\.z
*250 uio_oex_ibuf_I\[12\]\.z
*251 uio_oex_ibuf_I\[13\]\.z
*252 uio_oex_ibuf_I\[14\]\.z
*253 uio_oex_ibuf_I\[15\]\.z
*254 uio_oex_ibuf_I\[1\]\.z
*255 uio_oex_ibuf_I\[2\]\.z
*256 uio_oex_ibuf_I\[3\]\.z
*257 uio_oex_ibuf_I\[4\]\.z
*258 uio_oex_ibuf_I\[5\]\.z
*259 uio_oex_ibuf_I\[6\]\.z
*260 uio_oex_ibuf_I\[7\]\.z
*261 uio_oex_ibuf_I\[8\]\.z
*262 uio_oex_ibuf_I\[9\]\.z
*263 uio_out_ibuf_I\[0\]\.z
*264 uio_out_ibuf_I\[10\]\.z
*265 uio_out_ibuf_I\[11\]\.z
*266 uio_out_ibuf_I\[12\]\.z
*267 uio_out_ibuf_I\[13\]\.z
*268 uio_out_ibuf_I\[14\]\.z
*269 uio_out_ibuf_I\[15\]\.z
*270 uio_out_ibuf_I\[1\]\.z
*271 uio_out_ibuf_I\[2\]\.z
*272 uio_out_ibuf_I\[3\]\.z
*273 uio_out_ibuf_I\[4\]\.z
*274 uio_out_ibuf_I\[5\]\.z
*275 uio_out_ibuf_I\[6\]\.z
*276 uio_out_ibuf_I\[7\]\.z
*277 uio_out_ibuf_I\[8\]\.z
*278 uio_out_ibuf_I\[9\]\.z
*279 uio_out_mux_I\[0\]\.x
*280 uio_out_mux_I\[1\]\.x
*281 uio_out_mux_I\[2\]\.x
*282 uio_out_mux_I\[3\]\.x
*283 uio_out_mux_I\[4\]\.x
*284 uio_out_mux_I\[5\]\.x
*285 uio_out_mux_I\[6\]\.x
*286 uio_out_mux_I\[7\]\.x
*287 uo_out_ibuf_I\[0\]\.z
*288 uo_out_ibuf_I\[10\]\.z
*289 uo_out_ibuf_I\[11\]\.z
*290 uo_out_ibuf_I\[12\]\.z
*291 uo_out_ibuf_I\[13\]\.z
*292 uo_out_ibuf_I\[14\]\.z
*293 uo_out_ibuf_I\[15\]\.z
*294 uo_out_ibuf_I\[1\]\.z
*295 uo_out_ibuf_I\[2\]\.z
*296 uo_out_ibuf_I\[3\]\.z
*297 uo_out_ibuf_I\[4\]\.z
*298 uo_out_ibuf_I\[5\]\.z
*299 uo_out_ibuf_I\[6\]\.z
*300 uo_out_ibuf_I\[7\]\.z
*301 uo_out_ibuf_I\[8\]\.z
*302 uo_out_ibuf_I\[9\]\.z
*303 uo_out_mux_I\[0\]\.x
*304 uo_out_mux_I\[1\]\.x
*305 uo_out_mux_I\[2\]\.x
*306 uo_out_mux_I\[3\]\.x
*307 uo_out_mux_I\[4\]\.x
*308 uo_out_mux_I\[5\]\.x
*309 uo_out_mux_I\[6\]\.x
*310 uo_out_mux_I\[7\]\.x
*311 FILLER_0_100
*312 FILLER_0_103
*313 FILLER_0_106
*314 FILLER_0_109
*315 FILLER_0_113
*316 FILLER_0_116
*317 FILLER_0_119
*318 FILLER_0_12
*319 FILLER_0_122
*320 FILLER_0_125
*321 FILLER_0_128
*322 FILLER_0_131
*323 FILLER_0_134
*324 FILLER_0_137
*325 FILLER_0_141
*326 FILLER_0_144
*327 FILLER_0_147
*328 FILLER_0_15
*329 FILLER_0_150
*330 FILLER_0_153
*331 FILLER_0_156
*332 FILLER_0_159
*333 FILLER_0_162
*334 FILLER_0_165
*335 FILLER_0_169
*336 FILLER_0_172
*337 FILLER_0_175
*338 FILLER_0_178
*339 FILLER_0_18
*340 FILLER_0_181
*341 FILLER_0_184
*342 FILLER_0_187
*343 FILLER_0_190
*344 FILLER_0_193
*345 FILLER_0_197
*346 FILLER_0_200
*347 FILLER_0_203
*348 FILLER_0_206
*349 FILLER_0_209
*350 FILLER_0_21
*351 FILLER_0_212
*352 FILLER_0_215
*353 FILLER_0_218
*354 FILLER_0_221
*355 FILLER_0_225
*356 FILLER_0_228
*357 FILLER_0_231
*358 FILLER_0_234
*359 FILLER_0_237
*360 FILLER_0_24
*361 FILLER_0_251
*362 FILLER_0_253
*363 FILLER_0_27
*364 FILLER_0_272
*365 FILLER_0_275
*366 FILLER_0_278
*367 FILLER_0_281
*368 FILLER_0_284
*369 FILLER_0_287
*370 FILLER_0_29
*371 FILLER_0_290
*372 FILLER_0_293
*373 FILLER_0_3
*374 FILLER_0_307
*375 FILLER_0_309
*376 FILLER_0_312
*377 FILLER_0_315
*378 FILLER_0_318
*379 FILLER_0_32
*380 FILLER_0_321
*381 FILLER_0_324
*382 FILLER_0_327
*383 FILLER_0_330
*384 FILLER_0_333
*385 FILLER_0_337
*386 FILLER_0_340
*387 FILLER_0_343
*388 FILLER_0_346
*389 FILLER_0_349
*390 FILLER_0_35
*391 FILLER_0_352
*392 FILLER_0_355
*393 FILLER_0_358
*394 FILLER_0_361
*395 FILLER_0_365
*396 FILLER_0_368
*397 FILLER_0_371
*398 FILLER_0_374
*399 FILLER_0_377
*400 FILLER_0_38
*401 FILLER_0_380
*402 FILLER_0_383
*403 FILLER_0_41
*404 FILLER_0_44
*405 FILLER_0_47
*406 FILLER_0_50
*407 FILLER_0_53
*408 FILLER_0_57
*409 FILLER_0_6
*410 FILLER_0_60
*411 FILLER_0_63
*412 FILLER_0_66
*413 FILLER_0_69
*414 FILLER_0_72
*415 FILLER_0_75
*416 FILLER_0_78
*417 FILLER_0_81
*418 FILLER_0_85
*419 FILLER_0_88
*420 FILLER_0_9
*421 FILLER_0_91
*422 FILLER_0_94
*423 FILLER_0_97
*424 FILLER_10_100
*425 FILLER_10_103
*426 FILLER_10_106
*427 FILLER_10_109
*428 FILLER_10_112
*429 FILLER_10_115
*430 FILLER_10_118
*431 FILLER_10_12
*432 FILLER_10_121
*433 FILLER_10_124
*434 FILLER_10_127
*435 FILLER_10_130
*436 FILLER_10_133
*437 FILLER_10_136
*438 FILLER_10_139
*439 FILLER_10_141
*440 FILLER_10_144
*441 FILLER_10_147
*442 FILLER_10_15
*443 FILLER_10_150
*444 FILLER_10_153
*445 FILLER_10_156
*446 FILLER_10_159
*447 FILLER_10_162
*448 FILLER_10_165
*449 FILLER_10_168
*450 FILLER_10_18
*451 FILLER_10_184
*452 FILLER_10_187
*453 FILLER_10_190
*454 FILLER_10_193
*455 FILLER_10_197
*456 FILLER_10_200
*457 FILLER_10_21
*458 FILLER_10_227
*459 FILLER_10_230
*460 FILLER_10_233
*461 FILLER_10_236
*462 FILLER_10_239
*463 FILLER_10_24
*464 FILLER_10_242
*465 FILLER_10_245
*466 FILLER_10_248
*467 FILLER_10_251
*468 FILLER_10_253
*469 FILLER_10_256
*470 FILLER_10_27
*471 FILLER_10_282
*472 FILLER_10_285
*473 FILLER_10_288
*474 FILLER_10_29
*475 FILLER_10_291
*476 FILLER_10_294
*477 FILLER_10_297
*478 FILLER_10_3
*479 FILLER_10_300
*480 FILLER_10_303
*481 FILLER_10_306
*482 FILLER_10_309
*483 FILLER_10_312
*484 FILLER_10_315
*485 FILLER_10_318
*486 FILLER_10_32
*487 FILLER_10_321
*488 FILLER_10_324
*489 FILLER_10_327
*490 FILLER_10_330
*491 FILLER_10_333
*492 FILLER_10_336
*493 FILLER_10_339
*494 FILLER_10_342
*495 FILLER_10_345
*496 FILLER_10_348
*497 FILLER_10_35
*498 FILLER_10_351
*499 FILLER_10_354
*500 FILLER_10_357
*501 FILLER_10_362
*502 FILLER_10_365
*503 FILLER_10_368
*504 FILLER_10_372
*505 FILLER_10_375
*506 FILLER_10_378
*507 FILLER_10_38
*508 FILLER_10_381
*509 FILLER_10_384
*510 FILLER_10_41
*511 FILLER_10_44
*512 FILLER_10_47
*513 FILLER_10_50
*514 FILLER_10_53
*515 FILLER_10_56
*516 FILLER_10_59
*517 FILLER_10_6
*518 FILLER_10_62
*519 FILLER_10_65
*520 FILLER_10_68
*521 FILLER_10_71
*522 FILLER_10_74
*523 FILLER_10_77
*524 FILLER_10_80
*525 FILLER_10_83
*526 FILLER_10_85
*527 FILLER_10_88
*528 FILLER_10_9
*529 FILLER_10_91
*530 FILLER_10_94
*531 FILLER_10_97
*532 FILLER_11_102
*533 FILLER_11_105
*534 FILLER_11_108
*535 FILLER_11_111
*536 FILLER_11_113
*537 FILLER_11_116
*538 FILLER_11_119
*539 FILLER_11_12
*540 FILLER_11_122
*541 FILLER_11_125
*542 FILLER_11_128
*543 FILLER_11_131
*544 FILLER_11_134
*545 FILLER_11_137
*546 FILLER_11_140
*547 FILLER_11_143
*548 FILLER_11_146
*549 FILLER_11_149
*550 FILLER_11_15
*551 FILLER_11_152
*552 FILLER_11_155
*553 FILLER_11_158
*554 FILLER_11_161
*555 FILLER_11_164
*556 FILLER_11_167
*557 FILLER_11_169
*558 FILLER_11_172
*559 FILLER_11_18
*560 FILLER_11_181
*561 FILLER_11_184
*562 FILLER_11_187
*563 FILLER_11_190
*564 FILLER_11_193
*565 FILLER_11_196
*566 FILLER_11_199
*567 FILLER_11_202
*568 FILLER_11_205
*569 FILLER_11_208
*570 FILLER_11_21
*571 FILLER_11_211
*572 FILLER_11_214
*573 FILLER_11_217
*574 FILLER_11_220
*575 FILLER_11_223
*576 FILLER_11_225
*577 FILLER_11_228
*578 FILLER_11_231
*579 FILLER_11_234
*580 FILLER_11_237
*581 FILLER_11_24
*582 FILLER_11_240
*583 FILLER_11_243
*584 FILLER_11_246
*585 FILLER_11_249
*586 FILLER_11_252
*587 FILLER_11_255
*588 FILLER_11_258
*589 FILLER_11_261
*590 FILLER_11_264
*591 FILLER_11_27
*592 FILLER_11_279
*593 FILLER_11_281
*594 FILLER_11_284
*595 FILLER_11_287
*596 FILLER_11_290
*597 FILLER_11_293
*598 FILLER_11_296
*599 FILLER_11_299
*600 FILLER_11_3
*601 FILLER_11_30
*602 FILLER_11_302
*603 FILLER_11_305
*604 FILLER_11_308
*605 FILLER_11_311
*606 FILLER_11_314
*607 FILLER_11_317
*608 FILLER_11_320
*609 FILLER_11_323
*610 FILLER_11_326
*611 FILLER_11_329
*612 FILLER_11_33
*613 FILLER_11_332
*614 FILLER_11_335
*615 FILLER_11_337
*616 FILLER_11_340
*617 FILLER_11_343
*618 FILLER_11_346
*619 FILLER_11_349
*620 FILLER_11_352
*621 FILLER_11_355
*622 FILLER_11_358
*623 FILLER_11_36
*624 FILLER_11_361
*625 FILLER_11_364
*626 FILLER_11_367
*627 FILLER_11_370
*628 FILLER_11_373
*629 FILLER_11_376
*630 FILLER_11_379
*631 FILLER_11_382
*632 FILLER_11_39
*633 FILLER_11_42
*634 FILLER_11_45
*635 FILLER_11_48
*636 FILLER_11_51
*637 FILLER_11_54
*638 FILLER_11_57
*639 FILLER_11_6
*640 FILLER_11_60
*641 FILLER_11_63
*642 FILLER_11_66
*643 FILLER_11_69
*644 FILLER_11_72
*645 FILLER_11_75
*646 FILLER_11_78
*647 FILLER_11_81
*648 FILLER_11_84
*649 FILLER_11_87
*650 FILLER_11_9
*651 FILLER_11_90
*652 FILLER_11_93
*653 FILLER_11_96
*654 FILLER_11_99
*655 FILLER_12_100
*656 FILLER_12_103
*657 FILLER_12_106
*658 FILLER_12_109
*659 FILLER_12_112
*660 FILLER_12_115
*661 FILLER_12_118
*662 FILLER_12_12
*663 FILLER_12_121
*664 FILLER_12_124
*665 FILLER_12_127
*666 FILLER_12_130
*667 FILLER_12_133
*668 FILLER_12_136
*669 FILLER_12_139
*670 FILLER_12_141
*671 FILLER_12_144
*672 FILLER_12_147
*673 FILLER_12_15
*674 FILLER_12_150
*675 FILLER_12_153
*676 FILLER_12_156
*677 FILLER_12_159
*678 FILLER_12_162
*679 FILLER_12_165
*680 FILLER_12_168
*681 FILLER_12_171
*682 FILLER_12_174
*683 FILLER_12_177
*684 FILLER_12_18
*685 FILLER_12_180
*686 FILLER_12_183
*687 FILLER_12_186
*688 FILLER_12_189
*689 FILLER_12_192
*690 FILLER_12_195
*691 FILLER_12_197
*692 FILLER_12_200
*693 FILLER_12_203
*694 FILLER_12_206
*695 FILLER_12_209
*696 FILLER_12_21
*697 FILLER_12_212
*698 FILLER_12_215
*699 FILLER_12_218
*700 FILLER_12_221
*701 FILLER_12_24
*702 FILLER_12_246
*703 FILLER_12_249
*704 FILLER_12_253
*705 FILLER_12_256
*706 FILLER_12_259
*707 FILLER_12_262
*708 FILLER_12_265
*709 FILLER_12_27
*710 FILLER_12_279
*711 FILLER_12_282
*712 FILLER_12_285
*713 FILLER_12_288
*714 FILLER_12_29
*715 FILLER_12_291
*716 FILLER_12_294
*717 FILLER_12_297
*718 FILLER_12_3
*719 FILLER_12_300
*720 FILLER_12_303
*721 FILLER_12_306
*722 FILLER_12_309
*723 FILLER_12_312
*724 FILLER_12_315
*725 FILLER_12_318
*726 FILLER_12_32
*727 FILLER_12_321
*728 FILLER_12_324
*729 FILLER_12_327
*730 FILLER_12_330
*731 FILLER_12_333
*732 FILLER_12_336
*733 FILLER_12_339
*734 FILLER_12_342
*735 FILLER_12_345
*736 FILLER_12_348
*737 FILLER_12_35
*738 FILLER_12_351
*739 FILLER_12_354
*740 FILLER_12_357
*741 FILLER_12_360
*742 FILLER_12_363
*743 FILLER_12_365
*744 FILLER_12_368
*745 FILLER_12_371
*746 FILLER_12_374
*747 FILLER_12_377
*748 FILLER_12_38
*749 FILLER_12_380
*750 FILLER_12_383
*751 FILLER_12_41
*752 FILLER_12_44
*753 FILLER_12_47
*754 FILLER_12_50
*755 FILLER_12_53
*756 FILLER_12_56
*757 FILLER_12_59
*758 FILLER_12_6
*759 FILLER_12_62
*760 FILLER_12_65
*761 FILLER_12_68
*762 FILLER_12_71
*763 FILLER_12_74
*764 FILLER_12_77
*765 FILLER_12_80
*766 FILLER_12_83
*767 FILLER_12_85
*768 FILLER_12_88
*769 FILLER_12_9
*770 FILLER_12_91
*771 FILLER_12_94
*772 FILLER_12_97
*773 FILLER_13_102
*774 FILLER_13_105
*775 FILLER_13_108
*776 FILLER_13_111
*777 FILLER_13_113
*778 FILLER_13_116
*779 FILLER_13_119
*780 FILLER_13_12
*781 FILLER_13_122
*782 FILLER_13_125
*783 FILLER_13_128
*784 FILLER_13_131
*785 FILLER_13_134
*786 FILLER_13_137
*787 FILLER_13_140
*788 FILLER_13_143
*789 FILLER_13_146
*790 FILLER_13_149
*791 FILLER_13_15
*792 FILLER_13_152
*793 FILLER_13_155
*794 FILLER_13_158
*795 FILLER_13_161
*796 FILLER_13_164
*797 FILLER_13_167
*798 FILLER_13_169
*799 FILLER_13_172
*800 FILLER_13_175
*801 FILLER_13_178
*802 FILLER_13_18
*803 FILLER_13_181
*804 FILLER_13_184
*805 FILLER_13_187
*806 FILLER_13_190
*807 FILLER_13_193
*808 FILLER_13_196
*809 FILLER_13_199
*810 FILLER_13_202
*811 FILLER_13_205
*812 FILLER_13_208
*813 FILLER_13_21
*814 FILLER_13_211
*815 FILLER_13_214
*816 FILLER_13_217
*817 FILLER_13_220
*818 FILLER_13_223
*819 FILLER_13_225
*820 FILLER_13_228
*821 FILLER_13_231
*822 FILLER_13_234
*823 FILLER_13_24
*824 FILLER_13_260
*825 FILLER_13_263
*826 FILLER_13_27
*827 FILLER_13_278
*828 FILLER_13_281
*829 FILLER_13_284
*830 FILLER_13_287
*831 FILLER_13_290
*832 FILLER_13_293
*833 FILLER_13_296
*834 FILLER_13_299
*835 FILLER_13_3
*836 FILLER_13_30
*837 FILLER_13_302
*838 FILLER_13_305
*839 FILLER_13_308
*840 FILLER_13_311
*841 FILLER_13_314
*842 FILLER_13_317
*843 FILLER_13_320
*844 FILLER_13_323
*845 FILLER_13_326
*846 FILLER_13_329
*847 FILLER_13_33
*848 FILLER_13_332
*849 FILLER_13_335
*850 FILLER_13_337
*851 FILLER_13_340
*852 FILLER_13_343
*853 FILLER_13_346
*854 FILLER_13_349
*855 FILLER_13_352
*856 FILLER_13_355
*857 FILLER_13_358
*858 FILLER_13_36
*859 FILLER_13_361
*860 FILLER_13_364
*861 FILLER_13_367
*862 FILLER_13_370
*863 FILLER_13_373
*864 FILLER_13_376
*865 FILLER_13_379
*866 FILLER_13_382
*867 FILLER_13_39
*868 FILLER_13_42
*869 FILLER_13_45
*870 FILLER_13_48
*871 FILLER_13_51
*872 FILLER_13_54
*873 FILLER_13_57
*874 FILLER_13_6
*875 FILLER_13_60
*876 FILLER_13_63
*877 FILLER_13_66
*878 FILLER_13_69
*879 FILLER_13_72
*880 FILLER_13_75
*881 FILLER_13_78
*882 FILLER_13_81
*883 FILLER_13_84
*884 FILLER_13_87
*885 FILLER_13_9
*886 FILLER_13_90
*887 FILLER_13_93
*888 FILLER_13_96
*889 FILLER_13_99
*890 FILLER_14_100
*891 FILLER_14_103
*892 FILLER_14_106
*893 FILLER_14_109
*894 FILLER_14_112
*895 FILLER_14_115
*896 FILLER_14_118
*897 FILLER_14_12
*898 FILLER_14_121
*899 FILLER_14_124
*900 FILLER_14_127
*901 FILLER_14_130
*902 FILLER_14_133
*903 FILLER_14_136
*904 FILLER_14_139
*905 FILLER_14_141
*906 FILLER_14_144
*907 FILLER_14_147
*908 FILLER_14_15
*909 FILLER_14_150
*910 FILLER_14_153
*911 FILLER_14_156
*912 FILLER_14_159
*913 FILLER_14_162
*914 FILLER_14_165
*915 FILLER_14_168
*916 FILLER_14_171
*917 FILLER_14_174
*918 FILLER_14_177
*919 FILLER_14_18
*920 FILLER_14_180
*921 FILLER_14_183
*922 FILLER_14_186
*923 FILLER_14_189
*924 FILLER_14_192
*925 FILLER_14_195
*926 FILLER_14_197
*927 FILLER_14_200
*928 FILLER_14_203
*929 FILLER_14_206
*930 FILLER_14_209
*931 FILLER_14_21
*932 FILLER_14_212
*933 FILLER_14_215
*934 FILLER_14_218
*935 FILLER_14_221
*936 FILLER_14_224
*937 FILLER_14_227
*938 FILLER_14_230
*939 FILLER_14_233
*940 FILLER_14_236
*941 FILLER_14_239
*942 FILLER_14_24
*943 FILLER_14_242
*944 FILLER_14_245
*945 FILLER_14_248
*946 FILLER_14_251
*947 FILLER_14_27
*948 FILLER_14_277
*949 FILLER_14_280
*950 FILLER_14_283
*951 FILLER_14_286
*952 FILLER_14_289
*953 FILLER_14_29
*954 FILLER_14_292
*955 FILLER_14_295
*956 FILLER_14_298
*957 FILLER_14_3
*958 FILLER_14_301
*959 FILLER_14_304
*960 FILLER_14_307
*961 FILLER_14_309
*962 FILLER_14_312
*963 FILLER_14_315
*964 FILLER_14_318
*965 FILLER_14_32
*966 FILLER_14_321
*967 FILLER_14_324
*968 FILLER_14_327
*969 FILLER_14_330
*970 FILLER_14_333
*971 FILLER_14_336
*972 FILLER_14_339
*973 FILLER_14_342
*974 FILLER_14_345
*975 FILLER_14_348
*976 FILLER_14_35
*977 FILLER_14_351
*978 FILLER_14_354
*979 FILLER_14_357
*980 FILLER_14_360
*981 FILLER_14_363
*982 FILLER_14_365
*983 FILLER_14_368
*984 FILLER_14_371
*985 FILLER_14_374
*986 FILLER_14_377
*987 FILLER_14_38
*988 FILLER_14_380
*989 FILLER_14_383
*990 FILLER_14_41
*991 FILLER_14_44
*992 FILLER_14_47
*993 FILLER_14_50
*994 FILLER_14_53
*995 FILLER_14_56
*996 FILLER_14_59
*997 FILLER_14_6
*998 FILLER_14_62
*999 FILLER_14_65
*1000 FILLER_14_68
*1001 FILLER_14_71
*1002 FILLER_14_74
*1003 FILLER_14_77
*1004 FILLER_14_80
*1005 FILLER_14_83
*1006 FILLER_14_85
*1007 FILLER_14_88
*1008 FILLER_14_9
*1009 FILLER_14_91
*1010 FILLER_14_94
*1011 FILLER_14_97
*1012 FILLER_15_102
*1013 FILLER_15_105
*1014 FILLER_15_108
*1015 FILLER_15_111
*1016 FILLER_15_113
*1017 FILLER_15_116
*1018 FILLER_15_119
*1019 FILLER_15_12
*1020 FILLER_15_122
*1021 FILLER_15_125
*1022 FILLER_15_128
*1023 FILLER_15_131
*1024 FILLER_15_134
*1025 FILLER_15_137
*1026 FILLER_15_140
*1027 FILLER_15_143
*1028 FILLER_15_146
*1029 FILLER_15_149
*1030 FILLER_15_15
*1031 FILLER_15_152
*1032 FILLER_15_155
*1033 FILLER_15_158
*1034 FILLER_15_161
*1035 FILLER_15_164
*1036 FILLER_15_167
*1037 FILLER_15_169
*1038 FILLER_15_172
*1039 FILLER_15_175
*1040 FILLER_15_178
*1041 FILLER_15_18
*1042 FILLER_15_181
*1043 FILLER_15_184
*1044 FILLER_15_187
*1045 FILLER_15_190
*1046 FILLER_15_193
*1047 FILLER_15_196
*1048 FILLER_15_199
*1049 FILLER_15_202
*1050 FILLER_15_205
*1051 FILLER_15_208
*1052 FILLER_15_21
*1053 FILLER_15_211
*1054 FILLER_15_214
*1055 FILLER_15_217
*1056 FILLER_15_220
*1057 FILLER_15_223
*1058 FILLER_15_225
*1059 FILLER_15_228
*1060 FILLER_15_231
*1061 FILLER_15_234
*1062 FILLER_15_237
*1063 FILLER_15_24
*1064 FILLER_15_240
*1065 FILLER_15_243
*1066 FILLER_15_269
*1067 FILLER_15_27
*1068 FILLER_15_272
*1069 FILLER_15_275
*1070 FILLER_15_278
*1071 FILLER_15_281
*1072 FILLER_15_284
*1073 FILLER_15_287
*1074 FILLER_15_290
*1075 FILLER_15_293
*1076 FILLER_15_296
*1077 FILLER_15_299
*1078 FILLER_15_3
*1079 FILLER_15_30
*1080 FILLER_15_302
*1081 FILLER_15_305
*1082 FILLER_15_308
*1083 FILLER_15_311
*1084 FILLER_15_314
*1085 FILLER_15_317
*1086 FILLER_15_320
*1087 FILLER_15_323
*1088 FILLER_15_326
*1089 FILLER_15_329
*1090 FILLER_15_33
*1091 FILLER_15_332
*1092 FILLER_15_335
*1093 FILLER_15_337
*1094 FILLER_15_340
*1095 FILLER_15_343
*1096 FILLER_15_346
*1097 FILLER_15_349
*1098 FILLER_15_352
*1099 FILLER_15_355
*1100 FILLER_15_358
*1101 FILLER_15_36
*1102 FILLER_15_361
*1103 FILLER_15_364
*1104 FILLER_15_367
*1105 FILLER_15_370
*1106 FILLER_15_373
*1107 FILLER_15_376
*1108 FILLER_15_379
*1109 FILLER_15_382
*1110 FILLER_15_39
*1111 FILLER_15_42
*1112 FILLER_15_45
*1113 FILLER_15_48
*1114 FILLER_15_51
*1115 FILLER_15_54
*1116 FILLER_15_57
*1117 FILLER_15_6
*1118 FILLER_15_60
*1119 FILLER_15_63
*1120 FILLER_15_66
*1121 FILLER_15_69
*1122 FILLER_15_72
*1123 FILLER_15_75
*1124 FILLER_15_78
*1125 FILLER_15_81
*1126 FILLER_15_84
*1127 FILLER_15_87
*1128 FILLER_15_9
*1129 FILLER_15_90
*1130 FILLER_15_93
*1131 FILLER_15_96
*1132 FILLER_15_99
*1133 FILLER_16_100
*1134 FILLER_16_103
*1135 FILLER_16_106
*1136 FILLER_16_109
*1137 FILLER_16_112
*1138 FILLER_16_115
*1139 FILLER_16_118
*1140 FILLER_16_12
*1141 FILLER_16_121
*1142 FILLER_16_124
*1143 FILLER_16_127
*1144 FILLER_16_130
*1145 FILLER_16_133
*1146 FILLER_16_136
*1147 FILLER_16_139
*1148 FILLER_16_141
*1149 FILLER_16_144
*1150 FILLER_16_147
*1151 FILLER_16_15
*1152 FILLER_16_150
*1153 FILLER_16_153
*1154 FILLER_16_156
*1155 FILLER_16_159
*1156 FILLER_16_162
*1157 FILLER_16_165
*1158 FILLER_16_168
*1159 FILLER_16_171
*1160 FILLER_16_174
*1161 FILLER_16_177
*1162 FILLER_16_18
*1163 FILLER_16_180
*1164 FILLER_16_183
*1165 FILLER_16_186
*1166 FILLER_16_189
*1167 FILLER_16_192
*1168 FILLER_16_195
*1169 FILLER_16_197
*1170 FILLER_16_200
*1171 FILLER_16_203
*1172 FILLER_16_206
*1173 FILLER_16_209
*1174 FILLER_16_21
*1175 FILLER_16_212
*1176 FILLER_16_215
*1177 FILLER_16_218
*1178 FILLER_16_221
*1179 FILLER_16_224
*1180 FILLER_16_227
*1181 FILLER_16_230
*1182 FILLER_16_233
*1183 FILLER_16_236
*1184 FILLER_16_239
*1185 FILLER_16_24
*1186 FILLER_16_242
*1187 FILLER_16_245
*1188 FILLER_16_248
*1189 FILLER_16_251
*1190 FILLER_16_253
*1191 FILLER_16_256
*1192 FILLER_16_259
*1193 FILLER_16_262
*1194 FILLER_16_265
*1195 FILLER_16_268
*1196 FILLER_16_27
*1197 FILLER_16_271
*1198 FILLER_16_274
*1199 FILLER_16_277
*1200 FILLER_16_280
*1201 FILLER_16_283
*1202 FILLER_16_286
*1203 FILLER_16_289
*1204 FILLER_16_29
*1205 FILLER_16_292
*1206 FILLER_16_295
*1207 FILLER_16_298
*1208 FILLER_16_3
*1209 FILLER_16_301
*1210 FILLER_16_304
*1211 FILLER_16_307
*1212 FILLER_16_309
*1213 FILLER_16_312
*1214 FILLER_16_315
*1215 FILLER_16_318
*1216 FILLER_16_32
*1217 FILLER_16_321
*1218 FILLER_16_324
*1219 FILLER_16_327
*1220 FILLER_16_330
*1221 FILLER_16_333
*1222 FILLER_16_336
*1223 FILLER_16_339
*1224 FILLER_16_342
*1225 FILLER_16_345
*1226 FILLER_16_348
*1227 FILLER_16_35
*1228 FILLER_16_351
*1229 FILLER_16_354
*1230 FILLER_16_357
*1231 FILLER_16_360
*1232 FILLER_16_363
*1233 FILLER_16_365
*1234 FILLER_16_368
*1235 FILLER_16_371
*1236 FILLER_16_374
*1237 FILLER_16_377
*1238 FILLER_16_38
*1239 FILLER_16_380
*1240 FILLER_16_383
*1241 FILLER_16_41
*1242 FILLER_16_44
*1243 FILLER_16_47
*1244 FILLER_16_50
*1245 FILLER_16_53
*1246 FILLER_16_56
*1247 FILLER_16_59
*1248 FILLER_16_6
*1249 FILLER_16_62
*1250 FILLER_16_65
*1251 FILLER_16_68
*1252 FILLER_16_71
*1253 FILLER_16_74
*1254 FILLER_16_77
*1255 FILLER_16_80
*1256 FILLER_16_83
*1257 FILLER_16_85
*1258 FILLER_16_88
*1259 FILLER_16_9
*1260 FILLER_16_91
*1261 FILLER_16_94
*1262 FILLER_16_97
*1263 FILLER_17_102
*1264 FILLER_17_105
*1265 FILLER_17_108
*1266 FILLER_17_111
*1267 FILLER_17_113
*1268 FILLER_17_116
*1269 FILLER_17_119
*1270 FILLER_17_12
*1271 FILLER_17_122
*1272 FILLER_17_125
*1273 FILLER_17_128
*1274 FILLER_17_131
*1275 FILLER_17_134
*1276 FILLER_17_137
*1277 FILLER_17_140
*1278 FILLER_17_143
*1279 FILLER_17_146
*1280 FILLER_17_149
*1281 FILLER_17_15
*1282 FILLER_17_152
*1283 FILLER_17_155
*1284 FILLER_17_158
*1285 FILLER_17_161
*1286 FILLER_17_164
*1287 FILLER_17_167
*1288 FILLER_17_169
*1289 FILLER_17_172
*1290 FILLER_17_175
*1291 FILLER_17_178
*1292 FILLER_17_18
*1293 FILLER_17_181
*1294 FILLER_17_184
*1295 FILLER_17_187
*1296 FILLER_17_190
*1297 FILLER_17_193
*1298 FILLER_17_196
*1299 FILLER_17_199
*1300 FILLER_17_202
*1301 FILLER_17_205
*1302 FILLER_17_208
*1303 FILLER_17_21
*1304 FILLER_17_211
*1305 FILLER_17_214
*1306 FILLER_17_217
*1307 FILLER_17_220
*1308 FILLER_17_223
*1309 FILLER_17_225
*1310 FILLER_17_228
*1311 FILLER_17_231
*1312 FILLER_17_234
*1313 FILLER_17_237
*1314 FILLER_17_24
*1315 FILLER_17_240
*1316 FILLER_17_243
*1317 FILLER_17_246
*1318 FILLER_17_249
*1319 FILLER_17_252
*1320 FILLER_17_255
*1321 FILLER_17_258
*1322 FILLER_17_261
*1323 FILLER_17_264
*1324 FILLER_17_267
*1325 FILLER_17_27
*1326 FILLER_17_270
*1327 FILLER_17_273
*1328 FILLER_17_276
*1329 FILLER_17_279
*1330 FILLER_17_281
*1331 FILLER_17_284
*1332 FILLER_17_287
*1333 FILLER_17_290
*1334 FILLER_17_293
*1335 FILLER_17_296
*1336 FILLER_17_299
*1337 FILLER_17_3
*1338 FILLER_17_30
*1339 FILLER_17_302
*1340 FILLER_17_305
*1341 FILLER_17_308
*1342 FILLER_17_311
*1343 FILLER_17_314
*1344 FILLER_17_317
*1345 FILLER_17_320
*1346 FILLER_17_323
*1347 FILLER_17_326
*1348 FILLER_17_329
*1349 FILLER_17_33
*1350 FILLER_17_332
*1351 FILLER_17_335
*1352 FILLER_17_337
*1353 FILLER_17_340
*1354 FILLER_17_343
*1355 FILLER_17_346
*1356 FILLER_17_349
*1357 FILLER_17_352
*1358 FILLER_17_355
*1359 FILLER_17_358
*1360 FILLER_17_36
*1361 FILLER_17_361
*1362 FILLER_17_364
*1363 FILLER_17_367
*1364 FILLER_17_370
*1365 FILLER_17_373
*1366 FILLER_17_376
*1367 FILLER_17_379
*1368 FILLER_17_382
*1369 FILLER_17_39
*1370 FILLER_17_42
*1371 FILLER_17_45
*1372 FILLER_17_48
*1373 FILLER_17_51
*1374 FILLER_17_54
*1375 FILLER_17_57
*1376 FILLER_17_6
*1377 FILLER_17_60
*1378 FILLER_17_63
*1379 FILLER_17_66
*1380 FILLER_17_69
*1381 FILLER_17_72
*1382 FILLER_17_75
*1383 FILLER_17_78
*1384 FILLER_17_81
*1385 FILLER_17_84
*1386 FILLER_17_87
*1387 FILLER_17_9
*1388 FILLER_17_90
*1389 FILLER_17_93
*1390 FILLER_17_96
*1391 FILLER_17_99
*1392 FILLER_18_100
*1393 FILLER_18_103
*1394 FILLER_18_106
*1395 FILLER_18_109
*1396 FILLER_18_112
*1397 FILLER_18_115
*1398 FILLER_18_118
*1399 FILLER_18_12
*1400 FILLER_18_121
*1401 FILLER_18_124
*1402 FILLER_18_127
*1403 FILLER_18_130
*1404 FILLER_18_133
*1405 FILLER_18_136
*1406 FILLER_18_139
*1407 FILLER_18_141
*1408 FILLER_18_144
*1409 FILLER_18_147
*1410 FILLER_18_15
*1411 FILLER_18_150
*1412 FILLER_18_153
*1413 FILLER_18_156
*1414 FILLER_18_159
*1415 FILLER_18_162
*1416 FILLER_18_165
*1417 FILLER_18_168
*1418 FILLER_18_171
*1419 FILLER_18_174
*1420 FILLER_18_177
*1421 FILLER_18_18
*1422 FILLER_18_180
*1423 FILLER_18_183
*1424 FILLER_18_186
*1425 FILLER_18_189
*1426 FILLER_18_192
*1427 FILLER_18_195
*1428 FILLER_18_197
*1429 FILLER_18_200
*1430 FILLER_18_203
*1431 FILLER_18_206
*1432 FILLER_18_209
*1433 FILLER_18_21
*1434 FILLER_18_212
*1435 FILLER_18_215
*1436 FILLER_18_218
*1437 FILLER_18_221
*1438 FILLER_18_224
*1439 FILLER_18_227
*1440 FILLER_18_230
*1441 FILLER_18_233
*1442 FILLER_18_236
*1443 FILLER_18_239
*1444 FILLER_18_24
*1445 FILLER_18_242
*1446 FILLER_18_245
*1447 FILLER_18_248
*1448 FILLER_18_251
*1449 FILLER_18_253
*1450 FILLER_18_256
*1451 FILLER_18_259
*1452 FILLER_18_262
*1453 FILLER_18_265
*1454 FILLER_18_268
*1455 FILLER_18_27
*1456 FILLER_18_271
*1457 FILLER_18_274
*1458 FILLER_18_277
*1459 FILLER_18_280
*1460 FILLER_18_283
*1461 FILLER_18_286
*1462 FILLER_18_289
*1463 FILLER_18_29
*1464 FILLER_18_292
*1465 FILLER_18_295
*1466 FILLER_18_298
*1467 FILLER_18_3
*1468 FILLER_18_301
*1469 FILLER_18_304
*1470 FILLER_18_307
*1471 FILLER_18_309
*1472 FILLER_18_312
*1473 FILLER_18_315
*1474 FILLER_18_318
*1475 FILLER_18_32
*1476 FILLER_18_321
*1477 FILLER_18_324
*1478 FILLER_18_327
*1479 FILLER_18_330
*1480 FILLER_18_333
*1481 FILLER_18_336
*1482 FILLER_18_339
*1483 FILLER_18_342
*1484 FILLER_18_345
*1485 FILLER_18_348
*1486 FILLER_18_35
*1487 FILLER_18_351
*1488 FILLER_18_354
*1489 FILLER_18_357
*1490 FILLER_18_360
*1491 FILLER_18_363
*1492 FILLER_18_365
*1493 FILLER_18_368
*1494 FILLER_18_371
*1495 FILLER_18_374
*1496 FILLER_18_377
*1497 FILLER_18_38
*1498 FILLER_18_380
*1499 FILLER_18_383
*1500 FILLER_18_41
*1501 FILLER_18_44
*1502 FILLER_18_47
*1503 FILLER_18_50
*1504 FILLER_18_53
*1505 FILLER_18_56
*1506 FILLER_18_59
*1507 FILLER_18_6
*1508 FILLER_18_62
*1509 FILLER_18_65
*1510 FILLER_18_68
*1511 FILLER_18_71
*1512 FILLER_18_74
*1513 FILLER_18_77
*1514 FILLER_18_80
*1515 FILLER_18_83
*1516 FILLER_18_85
*1517 FILLER_18_88
*1518 FILLER_18_9
*1519 FILLER_18_91
*1520 FILLER_18_94
*1521 FILLER_18_97
*1522 FILLER_19_102
*1523 FILLER_19_105
*1524 FILLER_19_108
*1525 FILLER_19_111
*1526 FILLER_19_113
*1527 FILLER_19_116
*1528 FILLER_19_119
*1529 FILLER_19_12
*1530 FILLER_19_122
*1531 FILLER_19_125
*1532 FILLER_19_128
*1533 FILLER_19_131
*1534 FILLER_19_134
*1535 FILLER_19_137
*1536 FILLER_19_140
*1537 FILLER_19_143
*1538 FILLER_19_146
*1539 FILLER_19_149
*1540 FILLER_19_15
*1541 FILLER_19_152
*1542 FILLER_19_155
*1543 FILLER_19_158
*1544 FILLER_19_161
*1545 FILLER_19_164
*1546 FILLER_19_167
*1547 FILLER_19_169
*1548 FILLER_19_172
*1549 FILLER_19_175
*1550 FILLER_19_178
*1551 FILLER_19_18
*1552 FILLER_19_181
*1553 FILLER_19_184
*1554 FILLER_19_187
*1555 FILLER_19_190
*1556 FILLER_19_193
*1557 FILLER_19_196
*1558 FILLER_19_199
*1559 FILLER_19_202
*1560 FILLER_19_205
*1561 FILLER_19_208
*1562 FILLER_19_21
*1563 FILLER_19_211
*1564 FILLER_19_214
*1565 FILLER_19_217
*1566 FILLER_19_220
*1567 FILLER_19_223
*1568 FILLER_19_225
*1569 FILLER_19_228
*1570 FILLER_19_231
*1571 FILLER_19_234
*1572 FILLER_19_237
*1573 FILLER_19_24
*1574 FILLER_19_240
*1575 FILLER_19_243
*1576 FILLER_19_246
*1577 FILLER_19_249
*1578 FILLER_19_252
*1579 FILLER_19_255
*1580 FILLER_19_258
*1581 FILLER_19_261
*1582 FILLER_19_264
*1583 FILLER_19_267
*1584 FILLER_19_27
*1585 FILLER_19_281
*1586 FILLER_19_284
*1587 FILLER_19_287
*1588 FILLER_19_290
*1589 FILLER_19_293
*1590 FILLER_19_296
*1591 FILLER_19_299
*1592 FILLER_19_3
*1593 FILLER_19_30
*1594 FILLER_19_302
*1595 FILLER_19_305
*1596 FILLER_19_308
*1597 FILLER_19_311
*1598 FILLER_19_314
*1599 FILLER_19_317
*1600 FILLER_19_320
*1601 FILLER_19_323
*1602 FILLER_19_326
*1603 FILLER_19_329
*1604 FILLER_19_33
*1605 FILLER_19_332
*1606 FILLER_19_335
*1607 FILLER_19_337
*1608 FILLER_19_340
*1609 FILLER_19_343
*1610 FILLER_19_346
*1611 FILLER_19_349
*1612 FILLER_19_352
*1613 FILLER_19_355
*1614 FILLER_19_358
*1615 FILLER_19_36
*1616 FILLER_19_361
*1617 FILLER_19_364
*1618 FILLER_19_367
*1619 FILLER_19_370
*1620 FILLER_19_373
*1621 FILLER_19_376
*1622 FILLER_19_379
*1623 FILLER_19_382
*1624 FILLER_19_39
*1625 FILLER_19_42
*1626 FILLER_19_45
*1627 FILLER_19_48
*1628 FILLER_19_51
*1629 FILLER_19_54
*1630 FILLER_19_57
*1631 FILLER_19_6
*1632 FILLER_19_60
*1633 FILLER_19_63
*1634 FILLER_19_66
*1635 FILLER_19_69
*1636 FILLER_19_72
*1637 FILLER_19_75
*1638 FILLER_19_78
*1639 FILLER_19_81
*1640 FILLER_19_84
*1641 FILLER_19_87
*1642 FILLER_19_9
*1643 FILLER_19_90
*1644 FILLER_19_93
*1645 FILLER_19_96
*1646 FILLER_19_99
*1647 FILLER_1_102
*1648 FILLER_1_105
*1649 FILLER_1_108
*1650 FILLER_1_111
*1651 FILLER_1_113
*1652 FILLER_1_116
*1653 FILLER_1_119
*1654 FILLER_1_12
*1655 FILLER_1_122
*1656 FILLER_1_125
*1657 FILLER_1_128
*1658 FILLER_1_131
*1659 FILLER_1_15
*1660 FILLER_1_150
*1661 FILLER_1_160
*1662 FILLER_1_163
*1663 FILLER_1_166
*1664 FILLER_1_169
*1665 FILLER_1_172
*1666 FILLER_1_178
*1667 FILLER_1_18
*1668 FILLER_1_181
*1669 FILLER_1_184
*1670 FILLER_1_187
*1671 FILLER_1_193
*1672 FILLER_1_196
*1673 FILLER_1_199
*1674 FILLER_1_202
*1675 FILLER_1_205
*1676 FILLER_1_208
*1677 FILLER_1_21
*1678 FILLER_1_211
*1679 FILLER_1_214
*1680 FILLER_1_217
*1681 FILLER_1_220
*1682 FILLER_1_223
*1683 FILLER_1_24
*1684 FILLER_1_261
*1685 FILLER_1_27
*1686 FILLER_1_275
*1687 FILLER_1_278
*1688 FILLER_1_281
*1689 FILLER_1_3
*1690 FILLER_1_30
*1691 FILLER_1_307
*1692 FILLER_1_311
*1693 FILLER_1_314
*1694 FILLER_1_317
*1695 FILLER_1_320
*1696 FILLER_1_323
*1697 FILLER_1_326
*1698 FILLER_1_329
*1699 FILLER_1_33
*1700 FILLER_1_332
*1701 FILLER_1_335
*1702 FILLER_1_337
*1703 FILLER_1_340
*1704 FILLER_1_343
*1705 FILLER_1_346
*1706 FILLER_1_349
*1707 FILLER_1_352
*1708 FILLER_1_355
*1709 FILLER_1_358
*1710 FILLER_1_36
*1711 FILLER_1_361
*1712 FILLER_1_364
*1713 FILLER_1_367
*1714 FILLER_1_370
*1715 FILLER_1_373
*1716 FILLER_1_376
*1717 FILLER_1_379
*1718 FILLER_1_382
*1719 FILLER_1_39
*1720 FILLER_1_45
*1721 FILLER_1_48
*1722 FILLER_1_51
*1723 FILLER_1_54
*1724 FILLER_1_57
*1725 FILLER_1_6
*1726 FILLER_1_60
*1727 FILLER_1_63
*1728 FILLER_1_66
*1729 FILLER_1_69
*1730 FILLER_1_72
*1731 FILLER_1_75
*1732 FILLER_1_9
*1733 FILLER_20_100
*1734 FILLER_20_103
*1735 FILLER_20_106
*1736 FILLER_20_109
*1737 FILLER_20_112
*1738 FILLER_20_115
*1739 FILLER_20_118
*1740 FILLER_20_12
*1741 FILLER_20_121
*1742 FILLER_20_124
*1743 FILLER_20_127
*1744 FILLER_20_130
*1745 FILLER_20_133
*1746 FILLER_20_136
*1747 FILLER_20_139
*1748 FILLER_20_141
*1749 FILLER_20_144
*1750 FILLER_20_147
*1751 FILLER_20_15
*1752 FILLER_20_150
*1753 FILLER_20_153
*1754 FILLER_20_156
*1755 FILLER_20_159
*1756 FILLER_20_162
*1757 FILLER_20_165
*1758 FILLER_20_168
*1759 FILLER_20_171
*1760 FILLER_20_174
*1761 FILLER_20_177
*1762 FILLER_20_18
*1763 FILLER_20_180
*1764 FILLER_20_183
*1765 FILLER_20_186
*1766 FILLER_20_189
*1767 FILLER_20_192
*1768 FILLER_20_195
*1769 FILLER_20_197
*1770 FILLER_20_200
*1771 FILLER_20_203
*1772 FILLER_20_206
*1773 FILLER_20_209
*1774 FILLER_20_21
*1775 FILLER_20_212
*1776 FILLER_20_215
*1777 FILLER_20_218
*1778 FILLER_20_221
*1779 FILLER_20_224
*1780 FILLER_20_227
*1781 FILLER_20_230
*1782 FILLER_20_233
*1783 FILLER_20_236
*1784 FILLER_20_239
*1785 FILLER_20_24
*1786 FILLER_20_242
*1787 FILLER_20_245
*1788 FILLER_20_248
*1789 FILLER_20_251
*1790 FILLER_20_253
*1791 FILLER_20_256
*1792 FILLER_20_259
*1793 FILLER_20_262
*1794 FILLER_20_265
*1795 FILLER_20_268
*1796 FILLER_20_27
*1797 FILLER_20_271
*1798 FILLER_20_274
*1799 FILLER_20_277
*1800 FILLER_20_280
*1801 FILLER_20_283
*1802 FILLER_20_286
*1803 FILLER_20_289
*1804 FILLER_20_29
*1805 FILLER_20_292
*1806 FILLER_20_295
*1807 FILLER_20_298
*1808 FILLER_20_3
*1809 FILLER_20_301
*1810 FILLER_20_304
*1811 FILLER_20_307
*1812 FILLER_20_309
*1813 FILLER_20_312
*1814 FILLER_20_315
*1815 FILLER_20_318
*1816 FILLER_20_32
*1817 FILLER_20_321
*1818 FILLER_20_324
*1819 FILLER_20_327
*1820 FILLER_20_330
*1821 FILLER_20_333
*1822 FILLER_20_336
*1823 FILLER_20_339
*1824 FILLER_20_342
*1825 FILLER_20_345
*1826 FILLER_20_348
*1827 FILLER_20_35
*1828 FILLER_20_351
*1829 FILLER_20_354
*1830 FILLER_20_357
*1831 FILLER_20_360
*1832 FILLER_20_363
*1833 FILLER_20_365
*1834 FILLER_20_368
*1835 FILLER_20_371
*1836 FILLER_20_374
*1837 FILLER_20_377
*1838 FILLER_20_38
*1839 FILLER_20_380
*1840 FILLER_20_383
*1841 FILLER_20_41
*1842 FILLER_20_44
*1843 FILLER_20_47
*1844 FILLER_20_50
*1845 FILLER_20_53
*1846 FILLER_20_56
*1847 FILLER_20_59
*1848 FILLER_20_6
*1849 FILLER_20_62
*1850 FILLER_20_65
*1851 FILLER_20_68
*1852 FILLER_20_71
*1853 FILLER_20_74
*1854 FILLER_20_77
*1855 FILLER_20_80
*1856 FILLER_20_83
*1857 FILLER_20_85
*1858 FILLER_20_88
*1859 FILLER_20_9
*1860 FILLER_20_91
*1861 FILLER_20_94
*1862 FILLER_20_97
*1863 FILLER_21_102
*1864 FILLER_21_105
*1865 FILLER_21_108
*1866 FILLER_21_111
*1867 FILLER_21_113
*1868 FILLER_21_116
*1869 FILLER_21_119
*1870 FILLER_21_12
*1871 FILLER_21_122
*1872 FILLER_21_125
*1873 FILLER_21_128
*1874 FILLER_21_131
*1875 FILLER_21_134
*1876 FILLER_21_137
*1877 FILLER_21_140
*1878 FILLER_21_143
*1879 FILLER_21_146
*1880 FILLER_21_149
*1881 FILLER_21_15
*1882 FILLER_21_152
*1883 FILLER_21_155
*1884 FILLER_21_158
*1885 FILLER_21_161
*1886 FILLER_21_164
*1887 FILLER_21_167
*1888 FILLER_21_169
*1889 FILLER_21_172
*1890 FILLER_21_175
*1891 FILLER_21_178
*1892 FILLER_21_18
*1893 FILLER_21_181
*1894 FILLER_21_184
*1895 FILLER_21_187
*1896 FILLER_21_190
*1897 FILLER_21_193
*1898 FILLER_21_196
*1899 FILLER_21_199
*1900 FILLER_21_202
*1901 FILLER_21_205
*1902 FILLER_21_208
*1903 FILLER_21_21
*1904 FILLER_21_211
*1905 FILLER_21_214
*1906 FILLER_21_217
*1907 FILLER_21_220
*1908 FILLER_21_223
*1909 FILLER_21_225
*1910 FILLER_21_228
*1911 FILLER_21_231
*1912 FILLER_21_234
*1913 FILLER_21_237
*1914 FILLER_21_24
*1915 FILLER_21_240
*1916 FILLER_21_243
*1917 FILLER_21_246
*1918 FILLER_21_249
*1919 FILLER_21_252
*1920 FILLER_21_255
*1921 FILLER_21_258
*1922 FILLER_21_261
*1923 FILLER_21_264
*1924 FILLER_21_267
*1925 FILLER_21_27
*1926 FILLER_21_270
*1927 FILLER_21_273
*1928 FILLER_21_276
*1929 FILLER_21_279
*1930 FILLER_21_281
*1931 FILLER_21_284
*1932 FILLER_21_287
*1933 FILLER_21_290
*1934 FILLER_21_293
*1935 FILLER_21_296
*1936 FILLER_21_299
*1937 FILLER_21_3
*1938 FILLER_21_30
*1939 FILLER_21_302
*1940 FILLER_21_305
*1941 FILLER_21_308
*1942 FILLER_21_311
*1943 FILLER_21_314
*1944 FILLER_21_317
*1945 FILLER_21_320
*1946 FILLER_21_323
*1947 FILLER_21_326
*1948 FILLER_21_329
*1949 FILLER_21_33
*1950 FILLER_21_332
*1951 FILLER_21_335
*1952 FILLER_21_337
*1953 FILLER_21_340
*1954 FILLER_21_343
*1955 FILLER_21_346
*1956 FILLER_21_349
*1957 FILLER_21_352
*1958 FILLER_21_355
*1959 FILLER_21_358
*1960 FILLER_21_36
*1961 FILLER_21_361
*1962 FILLER_21_364
*1963 FILLER_21_367
*1964 FILLER_21_370
*1965 FILLER_21_373
*1966 FILLER_21_376
*1967 FILLER_21_379
*1968 FILLER_21_382
*1969 FILLER_21_39
*1970 FILLER_21_42
*1971 FILLER_21_45
*1972 FILLER_21_48
*1973 FILLER_21_51
*1974 FILLER_21_54
*1975 FILLER_21_57
*1976 FILLER_21_6
*1977 FILLER_21_60
*1978 FILLER_21_63
*1979 FILLER_21_66
*1980 FILLER_21_69
*1981 FILLER_21_72
*1982 FILLER_21_75
*1983 FILLER_21_78
*1984 FILLER_21_81
*1985 FILLER_21_84
*1986 FILLER_21_87
*1987 FILLER_21_9
*1988 FILLER_21_90
*1989 FILLER_21_93
*1990 FILLER_21_96
*1991 FILLER_21_99
*1992 FILLER_22_100
*1993 FILLER_22_103
*1994 FILLER_22_106
*1995 FILLER_22_111
*1996 FILLER_22_114
*1997 FILLER_22_117
*1998 FILLER_22_12
*1999 FILLER_22_120
*2000 FILLER_22_123
*2001 FILLER_22_126
*2002 FILLER_22_129
*2003 FILLER_22_132
*2004 FILLER_22_135
*2005 FILLER_22_138
*2006 FILLER_22_141
*2007 FILLER_22_144
*2008 FILLER_22_147
*2009 FILLER_22_15
*2010 FILLER_22_150
*2011 FILLER_22_153
*2012 FILLER_22_156
*2013 FILLER_22_159
*2014 FILLER_22_162
*2015 FILLER_22_165
*2016 FILLER_22_168
*2017 FILLER_22_171
*2018 FILLER_22_174
*2019 FILLER_22_177
*2020 FILLER_22_18
*2021 FILLER_22_180
*2022 FILLER_22_183
*2023 FILLER_22_186
*2024 FILLER_22_189
*2025 FILLER_22_192
*2026 FILLER_22_195
*2027 FILLER_22_197
*2028 FILLER_22_200
*2029 FILLER_22_203
*2030 FILLER_22_206
*2031 FILLER_22_209
*2032 FILLER_22_21
*2033 FILLER_22_212
*2034 FILLER_22_215
*2035 FILLER_22_218
*2036 FILLER_22_221
*2037 FILLER_22_224
*2038 FILLER_22_227
*2039 FILLER_22_230
*2040 FILLER_22_233
*2041 FILLER_22_236
*2042 FILLER_22_239
*2043 FILLER_22_24
*2044 FILLER_22_242
*2045 FILLER_22_245
*2046 FILLER_22_248
*2047 FILLER_22_251
*2048 FILLER_22_253
*2049 FILLER_22_256
*2050 FILLER_22_259
*2051 FILLER_22_262
*2052 FILLER_22_265
*2053 FILLER_22_268
*2054 FILLER_22_27
*2055 FILLER_22_271
*2056 FILLER_22_274
*2057 FILLER_22_277
*2058 FILLER_22_280
*2059 FILLER_22_283
*2060 FILLER_22_286
*2061 FILLER_22_289
*2062 FILLER_22_29
*2063 FILLER_22_292
*2064 FILLER_22_295
*2065 FILLER_22_298
*2066 FILLER_22_3
*2067 FILLER_22_301
*2068 FILLER_22_304
*2069 FILLER_22_307
*2070 FILLER_22_309
*2071 FILLER_22_312
*2072 FILLER_22_315
*2073 FILLER_22_318
*2074 FILLER_22_32
*2075 FILLER_22_321
*2076 FILLER_22_324
*2077 FILLER_22_327
*2078 FILLER_22_330
*2079 FILLER_22_333
*2080 FILLER_22_336
*2081 FILLER_22_339
*2082 FILLER_22_342
*2083 FILLER_22_345
*2084 FILLER_22_348
*2085 FILLER_22_35
*2086 FILLER_22_351
*2087 FILLER_22_354
*2088 FILLER_22_357
*2089 FILLER_22_360
*2090 FILLER_22_363
*2091 FILLER_22_365
*2092 FILLER_22_368
*2093 FILLER_22_371
*2094 FILLER_22_374
*2095 FILLER_22_377
*2096 FILLER_22_38
*2097 FILLER_22_380
*2098 FILLER_22_383
*2099 FILLER_22_41
*2100 FILLER_22_44
*2101 FILLER_22_47
*2102 FILLER_22_50
*2103 FILLER_22_53
*2104 FILLER_22_56
*2105 FILLER_22_59
*2106 FILLER_22_6
*2107 FILLER_22_62
*2108 FILLER_22_65
*2109 FILLER_22_68
*2110 FILLER_22_71
*2111 FILLER_22_74
*2112 FILLER_22_77
*2113 FILLER_22_80
*2114 FILLER_22_83
*2115 FILLER_22_85
*2116 FILLER_22_88
*2117 FILLER_22_9
*2118 FILLER_22_91
*2119 FILLER_22_94
*2120 FILLER_22_97
*2121 FILLER_23_102
*2122 FILLER_23_105
*2123 FILLER_23_108
*2124 FILLER_23_111
*2125 FILLER_23_113
*2126 FILLER_23_116
*2127 FILLER_23_119
*2128 FILLER_23_12
*2129 FILLER_23_122
*2130 FILLER_23_125
*2131 FILLER_23_128
*2132 FILLER_23_131
*2133 FILLER_23_134
*2134 FILLER_23_137
*2135 FILLER_23_140
*2136 FILLER_23_143
*2137 FILLER_23_146
*2138 FILLER_23_149
*2139 FILLER_23_15
*2140 FILLER_23_152
*2141 FILLER_23_155
*2142 FILLER_23_158
*2143 FILLER_23_161
*2144 FILLER_23_164
*2145 FILLER_23_167
*2146 FILLER_23_169
*2147 FILLER_23_172
*2148 FILLER_23_175
*2149 FILLER_23_178
*2150 FILLER_23_18
*2151 FILLER_23_181
*2152 FILLER_23_184
*2153 FILLER_23_187
*2154 FILLER_23_190
*2155 FILLER_23_193
*2156 FILLER_23_196
*2157 FILLER_23_199
*2158 FILLER_23_202
*2159 FILLER_23_205
*2160 FILLER_23_208
*2161 FILLER_23_21
*2162 FILLER_23_211
*2163 FILLER_23_214
*2164 FILLER_23_217
*2165 FILLER_23_220
*2166 FILLER_23_223
*2167 FILLER_23_225
*2168 FILLER_23_228
*2169 FILLER_23_231
*2170 FILLER_23_234
*2171 FILLER_23_237
*2172 FILLER_23_24
*2173 FILLER_23_240
*2174 FILLER_23_243
*2175 FILLER_23_246
*2176 FILLER_23_249
*2177 FILLER_23_252
*2178 FILLER_23_255
*2179 FILLER_23_258
*2180 FILLER_23_261
*2181 FILLER_23_264
*2182 FILLER_23_27
*2183 FILLER_23_278
*2184 FILLER_23_281
*2185 FILLER_23_284
*2186 FILLER_23_287
*2187 FILLER_23_290
*2188 FILLER_23_293
*2189 FILLER_23_296
*2190 FILLER_23_299
*2191 FILLER_23_3
*2192 FILLER_23_30
*2193 FILLER_23_302
*2194 FILLER_23_305
*2195 FILLER_23_308
*2196 FILLER_23_311
*2197 FILLER_23_314
*2198 FILLER_23_317
*2199 FILLER_23_320
*2200 FILLER_23_323
*2201 FILLER_23_326
*2202 FILLER_23_329
*2203 FILLER_23_33
*2204 FILLER_23_332
*2205 FILLER_23_335
*2206 FILLER_23_337
*2207 FILLER_23_340
*2208 FILLER_23_343
*2209 FILLER_23_346
*2210 FILLER_23_349
*2211 FILLER_23_352
*2212 FILLER_23_355
*2213 FILLER_23_358
*2214 FILLER_23_36
*2215 FILLER_23_361
*2216 FILLER_23_364
*2217 FILLER_23_367
*2218 FILLER_23_370
*2219 FILLER_23_373
*2220 FILLER_23_376
*2221 FILLER_23_379
*2222 FILLER_23_382
*2223 FILLER_23_39
*2224 FILLER_23_42
*2225 FILLER_23_45
*2226 FILLER_23_48
*2227 FILLER_23_51
*2228 FILLER_23_54
*2229 FILLER_23_57
*2230 FILLER_23_6
*2231 FILLER_23_60
*2232 FILLER_23_63
*2233 FILLER_23_66
*2234 FILLER_23_69
*2235 FILLER_23_72
*2236 FILLER_23_75
*2237 FILLER_23_78
*2238 FILLER_23_81
*2239 FILLER_23_84
*2240 FILLER_23_87
*2241 FILLER_23_9
*2242 FILLER_23_90
*2243 FILLER_23_93
*2244 FILLER_23_96
*2245 FILLER_23_99
*2246 FILLER_24_100
*2247 FILLER_24_103
*2248 FILLER_24_106
*2249 FILLER_24_109
*2250 FILLER_24_118
*2251 FILLER_24_12
*2252 FILLER_24_121
*2253 FILLER_24_124
*2254 FILLER_24_127
*2255 FILLER_24_130
*2256 FILLER_24_133
*2257 FILLER_24_138
*2258 FILLER_24_141
*2259 FILLER_24_144
*2260 FILLER_24_147
*2261 FILLER_24_15
*2262 FILLER_24_150
*2263 FILLER_24_153
*2264 FILLER_24_156
*2265 FILLER_24_159
*2266 FILLER_24_162
*2267 FILLER_24_165
*2268 FILLER_24_168
*2269 FILLER_24_171
*2270 FILLER_24_174
*2271 FILLER_24_177
*2272 FILLER_24_18
*2273 FILLER_24_180
*2274 FILLER_24_183
*2275 FILLER_24_186
*2276 FILLER_24_189
*2277 FILLER_24_192
*2278 FILLER_24_195
*2279 FILLER_24_197
*2280 FILLER_24_200
*2281 FILLER_24_203
*2282 FILLER_24_206
*2283 FILLER_24_209
*2284 FILLER_24_21
*2285 FILLER_24_212
*2286 FILLER_24_215
*2287 FILLER_24_218
*2288 FILLER_24_221
*2289 FILLER_24_224
*2290 FILLER_24_227
*2291 FILLER_24_230
*2292 FILLER_24_233
*2293 FILLER_24_236
*2294 FILLER_24_239
*2295 FILLER_24_24
*2296 FILLER_24_242
*2297 FILLER_24_245
*2298 FILLER_24_248
*2299 FILLER_24_251
*2300 FILLER_24_253
*2301 FILLER_24_256
*2302 FILLER_24_259
*2303 FILLER_24_262
*2304 FILLER_24_265
*2305 FILLER_24_268
*2306 FILLER_24_27
*2307 FILLER_24_271
*2308 FILLER_24_274
*2309 FILLER_24_277
*2310 FILLER_24_280
*2311 FILLER_24_283
*2312 FILLER_24_286
*2313 FILLER_24_289
*2314 FILLER_24_29
*2315 FILLER_24_292
*2316 FILLER_24_295
*2317 FILLER_24_298
*2318 FILLER_24_3
*2319 FILLER_24_301
*2320 FILLER_24_304
*2321 FILLER_24_307
*2322 FILLER_24_309
*2323 FILLER_24_312
*2324 FILLER_24_315
*2325 FILLER_24_318
*2326 FILLER_24_32
*2327 FILLER_24_321
*2328 FILLER_24_324
*2329 FILLER_24_327
*2330 FILLER_24_330
*2331 FILLER_24_333
*2332 FILLER_24_336
*2333 FILLER_24_339
*2334 FILLER_24_342
*2335 FILLER_24_345
*2336 FILLER_24_348
*2337 FILLER_24_35
*2338 FILLER_24_351
*2339 FILLER_24_354
*2340 FILLER_24_357
*2341 FILLER_24_360
*2342 FILLER_24_363
*2343 FILLER_24_365
*2344 FILLER_24_368
*2345 FILLER_24_371
*2346 FILLER_24_374
*2347 FILLER_24_377
*2348 FILLER_24_38
*2349 FILLER_24_380
*2350 FILLER_24_383
*2351 FILLER_24_41
*2352 FILLER_24_44
*2353 FILLER_24_47
*2354 FILLER_24_50
*2355 FILLER_24_53
*2356 FILLER_24_56
*2357 FILLER_24_59
*2358 FILLER_24_6
*2359 FILLER_24_62
*2360 FILLER_24_65
*2361 FILLER_24_68
*2362 FILLER_24_71
*2363 FILLER_24_74
*2364 FILLER_24_77
*2365 FILLER_24_80
*2366 FILLER_24_83
*2367 FILLER_24_85
*2368 FILLER_24_88
*2369 FILLER_24_9
*2370 FILLER_24_91
*2371 FILLER_24_94
*2372 FILLER_24_97
*2373 FILLER_25_101
*2374 FILLER_25_104
*2375 FILLER_25_107
*2376 FILLER_25_110
*2377 FILLER_25_113
*2378 FILLER_25_116
*2379 FILLER_25_119
*2380 FILLER_25_12
*2381 FILLER_25_122
*2382 FILLER_25_125
*2383 FILLER_25_128
*2384 FILLER_25_132
*2385 FILLER_25_135
*2386 FILLER_25_138
*2387 FILLER_25_141
*2388 FILLER_25_146
*2389 FILLER_25_149
*2390 FILLER_25_15
*2391 FILLER_25_152
*2392 FILLER_25_155
*2393 FILLER_25_158
*2394 FILLER_25_161
*2395 FILLER_25_164
*2396 FILLER_25_167
*2397 FILLER_25_169
*2398 FILLER_25_172
*2399 FILLER_25_175
*2400 FILLER_25_178
*2401 FILLER_25_18
*2402 FILLER_25_181
*2403 FILLER_25_184
*2404 FILLER_25_187
*2405 FILLER_25_190
*2406 FILLER_25_193
*2407 FILLER_25_196
*2408 FILLER_25_199
*2409 FILLER_25_202
*2410 FILLER_25_205
*2411 FILLER_25_208
*2412 FILLER_25_21
*2413 FILLER_25_211
*2414 FILLER_25_214
*2415 FILLER_25_217
*2416 FILLER_25_220
*2417 FILLER_25_223
*2418 FILLER_25_225
*2419 FILLER_25_228
*2420 FILLER_25_231
*2421 FILLER_25_234
*2422 FILLER_25_237
*2423 FILLER_25_24
*2424 FILLER_25_240
*2425 FILLER_25_243
*2426 FILLER_25_246
*2427 FILLER_25_249
*2428 FILLER_25_252
*2429 FILLER_25_255
*2430 FILLER_25_258
*2431 FILLER_25_261
*2432 FILLER_25_264
*2433 FILLER_25_267
*2434 FILLER_25_27
*2435 FILLER_25_270
*2436 FILLER_25_273
*2437 FILLER_25_276
*2438 FILLER_25_279
*2439 FILLER_25_281
*2440 FILLER_25_284
*2441 FILLER_25_287
*2442 FILLER_25_290
*2443 FILLER_25_293
*2444 FILLER_25_296
*2445 FILLER_25_299
*2446 FILLER_25_3
*2447 FILLER_25_30
*2448 FILLER_25_302
*2449 FILLER_25_305
*2450 FILLER_25_308
*2451 FILLER_25_311
*2452 FILLER_25_314
*2453 FILLER_25_317
*2454 FILLER_25_320
*2455 FILLER_25_323
*2456 FILLER_25_326
*2457 FILLER_25_329
*2458 FILLER_25_33
*2459 FILLER_25_332
*2460 FILLER_25_335
*2461 FILLER_25_337
*2462 FILLER_25_340
*2463 FILLER_25_343
*2464 FILLER_25_346
*2465 FILLER_25_349
*2466 FILLER_25_352
*2467 FILLER_25_355
*2468 FILLER_25_358
*2469 FILLER_25_36
*2470 FILLER_25_361
*2471 FILLER_25_364
*2472 FILLER_25_367
*2473 FILLER_25_370
*2474 FILLER_25_373
*2475 FILLER_25_376
*2476 FILLER_25_379
*2477 FILLER_25_382
*2478 FILLER_25_39
*2479 FILLER_25_42
*2480 FILLER_25_45
*2481 FILLER_25_48
*2482 FILLER_25_51
*2483 FILLER_25_54
*2484 FILLER_25_57
*2485 FILLER_25_6
*2486 FILLER_25_60
*2487 FILLER_25_63
*2488 FILLER_25_66
*2489 FILLER_25_69
*2490 FILLER_25_72
*2491 FILLER_25_75
*2492 FILLER_25_78
*2493 FILLER_25_84
*2494 FILLER_25_89
*2495 FILLER_25_9
*2496 FILLER_25_92
*2497 FILLER_25_95
*2498 FILLER_25_98
*2499 FILLER_26_101
*2500 FILLER_26_104
*2501 FILLER_26_111
*2502 FILLER_26_117
*2503 FILLER_26_12
*2504 FILLER_26_120
*2505 FILLER_26_123
*2506 FILLER_26_127
*2507 FILLER_26_130
*2508 FILLER_26_133
*2509 FILLER_26_136
*2510 FILLER_26_139
*2511 FILLER_26_15
*2512 FILLER_26_151
*2513 FILLER_26_154
*2514 FILLER_26_159
*2515 FILLER_26_162
*2516 FILLER_26_165
*2517 FILLER_26_169
*2518 FILLER_26_172
*2519 FILLER_26_175
*2520 FILLER_26_178
*2521 FILLER_26_18
*2522 FILLER_26_181
*2523 FILLER_26_194
*2524 FILLER_26_197
*2525 FILLER_26_200
*2526 FILLER_26_203
*2527 FILLER_26_206
*2528 FILLER_26_209
*2529 FILLER_26_21
*2530 FILLER_26_212
*2531 FILLER_26_215
*2532 FILLER_26_218
*2533 FILLER_26_221
*2534 FILLER_26_224
*2535 FILLER_26_227
*2536 FILLER_26_230
*2537 FILLER_26_233
*2538 FILLER_26_236
*2539 FILLER_26_239
*2540 FILLER_26_24
*2541 FILLER_26_242
*2542 FILLER_26_245
*2543 FILLER_26_248
*2544 FILLER_26_251
*2545 FILLER_26_253
*2546 FILLER_26_256
*2547 FILLER_26_259
*2548 FILLER_26_262
*2549 FILLER_26_265
*2550 FILLER_26_268
*2551 FILLER_26_27
*2552 FILLER_26_271
*2553 FILLER_26_274
*2554 FILLER_26_277
*2555 FILLER_26_280
*2556 FILLER_26_283
*2557 FILLER_26_286
*2558 FILLER_26_289
*2559 FILLER_26_29
*2560 FILLER_26_292
*2561 FILLER_26_295
*2562 FILLER_26_298
*2563 FILLER_26_3
*2564 FILLER_26_301
*2565 FILLER_26_304
*2566 FILLER_26_307
*2567 FILLER_26_309
*2568 FILLER_26_312
*2569 FILLER_26_315
*2570 FILLER_26_318
*2571 FILLER_26_32
*2572 FILLER_26_321
*2573 FILLER_26_324
*2574 FILLER_26_327
*2575 FILLER_26_330
*2576 FILLER_26_334
*2577 FILLER_26_337
*2578 FILLER_26_340
*2579 FILLER_26_343
*2580 FILLER_26_346
*2581 FILLER_26_349
*2582 FILLER_26_35
*2583 FILLER_26_352
*2584 FILLER_26_355
*2585 FILLER_26_358
*2586 FILLER_26_361
*2587 FILLER_26_365
*2588 FILLER_26_368
*2589 FILLER_26_371
*2590 FILLER_26_374
*2591 FILLER_26_377
*2592 FILLER_26_38
*2593 FILLER_26_380
*2594 FILLER_26_383
*2595 FILLER_26_41
*2596 FILLER_26_44
*2597 FILLER_26_47
*2598 FILLER_26_50
*2599 FILLER_26_53
*2600 FILLER_26_56
*2601 FILLER_26_59
*2602 FILLER_26_6
*2603 FILLER_26_62
*2604 FILLER_26_65
*2605 FILLER_26_68
*2606 FILLER_26_71
*2607 FILLER_26_74
*2608 FILLER_26_77
*2609 FILLER_26_80
*2610 FILLER_26_83
*2611 FILLER_26_85
*2612 FILLER_26_88
*2613 FILLER_26_9
*2614 FILLER_26_91
*2615 FILLER_26_94
*2616 FILLER_26_97
*2617 FILLER_27_106
*2618 FILLER_27_109
*2619 FILLER_27_113
*2620 FILLER_27_116
*2621 FILLER_27_119
*2622 FILLER_27_12
*2623 FILLER_27_122
*2624 FILLER_27_125
*2625 FILLER_27_128
*2626 FILLER_27_131
*2627 FILLER_27_137
*2628 FILLER_27_140
*2629 FILLER_27_146
*2630 FILLER_27_149
*2631 FILLER_27_15
*2632 FILLER_27_156
*2633 FILLER_27_164
*2634 FILLER_27_167
*2635 FILLER_27_172
*2636 FILLER_27_175
*2637 FILLER_27_178
*2638 FILLER_27_18
*2639 FILLER_27_181
*2640 FILLER_27_184
*2641 FILLER_27_187
*2642 FILLER_27_190
*2643 FILLER_27_193
*2644 FILLER_27_196
*2645 FILLER_27_199
*2646 FILLER_27_202
*2647 FILLER_27_205
*2648 FILLER_27_208
*2649 FILLER_27_21
*2650 FILLER_27_211
*2651 FILLER_27_214
*2652 FILLER_27_217
*2653 FILLER_27_220
*2654 FILLER_27_223
*2655 FILLER_27_225
*2656 FILLER_27_228
*2657 FILLER_27_231
*2658 FILLER_27_234
*2659 FILLER_27_237
*2660 FILLER_27_24
*2661 FILLER_27_240
*2662 FILLER_27_243
*2663 FILLER_27_246
*2664 FILLER_27_249
*2665 FILLER_27_252
*2666 FILLER_27_255
*2667 FILLER_27_258
*2668 FILLER_27_261
*2669 FILLER_27_264
*2670 FILLER_27_267
*2671 FILLER_27_27
*2672 FILLER_27_270
*2673 FILLER_27_273
*2674 FILLER_27_276
*2675 FILLER_27_279
*2676 FILLER_27_281
*2677 FILLER_27_284
*2678 FILLER_27_287
*2679 FILLER_27_290
*2680 FILLER_27_293
*2681 FILLER_27_296
*2682 FILLER_27_299
*2683 FILLER_27_3
*2684 FILLER_27_30
*2685 FILLER_27_302
*2686 FILLER_27_305
*2687 FILLER_27_308
*2688 FILLER_27_311
*2689 FILLER_27_314
*2690 FILLER_27_317
*2691 FILLER_27_320
*2692 FILLER_27_323
*2693 FILLER_27_326
*2694 FILLER_27_329
*2695 FILLER_27_33
*2696 FILLER_27_332
*2697 FILLER_27_335
*2698 FILLER_27_339
*2699 FILLER_27_342
*2700 FILLER_27_345
*2701 FILLER_27_348
*2702 FILLER_27_351
*2703 FILLER_27_354
*2704 FILLER_27_357
*2705 FILLER_27_36
*2706 FILLER_27_360
*2707 FILLER_27_363
*2708 FILLER_27_366
*2709 FILLER_27_369
*2710 FILLER_27_372
*2711 FILLER_27_375
*2712 FILLER_27_378
*2713 FILLER_27_381
*2714 FILLER_27_384
*2715 FILLER_27_39
*2716 FILLER_27_42
*2717 FILLER_27_45
*2718 FILLER_27_48
*2719 FILLER_27_51
*2720 FILLER_27_54
*2721 FILLER_27_57
*2722 FILLER_27_6
*2723 FILLER_27_60
*2724 FILLER_27_63
*2725 FILLER_27_66
*2726 FILLER_27_69
*2727 FILLER_27_80
*2728 FILLER_27_86
*2729 FILLER_27_89
*2730 FILLER_27_9
*2731 FILLER_27_92
*2732 FILLER_27_95
*2733 FILLER_27_99
*2734 FILLER_28_100
*2735 FILLER_28_115
*2736 FILLER_28_118
*2737 FILLER_28_12
*2738 FILLER_28_121
*2739 FILLER_28_124
*2740 FILLER_28_127
*2741 FILLER_28_131
*2742 FILLER_28_134
*2743 FILLER_28_137
*2744 FILLER_28_141
*2745 FILLER_28_144
*2746 FILLER_28_147
*2747 FILLER_28_15
*2748 FILLER_28_151
*2749 FILLER_28_154
*2750 FILLER_28_158
*2751 FILLER_28_161
*2752 FILLER_28_164
*2753 FILLER_28_167
*2754 FILLER_28_170
*2755 FILLER_28_173
*2756 FILLER_28_176
*2757 FILLER_28_179
*2758 FILLER_28_18
*2759 FILLER_28_182
*2760 FILLER_28_185
*2761 FILLER_28_188
*2762 FILLER_28_191
*2763 FILLER_28_194
*2764 FILLER_28_197
*2765 FILLER_28_200
*2766 FILLER_28_203
*2767 FILLER_28_206
*2768 FILLER_28_209
*2769 FILLER_28_21
*2770 FILLER_28_212
*2771 FILLER_28_215
*2772 FILLER_28_218
*2773 FILLER_28_221
*2774 FILLER_28_224
*2775 FILLER_28_227
*2776 FILLER_28_230
*2777 FILLER_28_233
*2778 FILLER_28_236
*2779 FILLER_28_239
*2780 FILLER_28_24
*2781 FILLER_28_242
*2782 FILLER_28_245
*2783 FILLER_28_248
*2784 FILLER_28_251
*2785 FILLER_28_253
*2786 FILLER_28_260
*2787 FILLER_28_268
*2788 FILLER_28_27
*2789 FILLER_28_271
*2790 FILLER_28_274
*2791 FILLER_28_277
*2792 FILLER_28_280
*2793 FILLER_28_283
*2794 FILLER_28_286
*2795 FILLER_28_289
*2796 FILLER_28_29
*2797 FILLER_28_292
*2798 FILLER_28_295
*2799 FILLER_28_298
*2800 FILLER_28_3
*2801 FILLER_28_301
*2802 FILLER_28_304
*2803 FILLER_28_307
*2804 FILLER_28_309
*2805 FILLER_28_312
*2806 FILLER_28_315
*2807 FILLER_28_318
*2808 FILLER_28_32
*2809 FILLER_28_321
*2810 FILLER_28_324
*2811 FILLER_28_327
*2812 FILLER_28_330
*2813 FILLER_28_333
*2814 FILLER_28_336
*2815 FILLER_28_339
*2816 FILLER_28_342
*2817 FILLER_28_345
*2818 FILLER_28_348
*2819 FILLER_28_35
*2820 FILLER_28_351
*2821 FILLER_28_354
*2822 FILLER_28_357
*2823 FILLER_28_360
*2824 FILLER_28_363
*2825 FILLER_28_365
*2826 FILLER_28_368
*2827 FILLER_28_371
*2828 FILLER_28_374
*2829 FILLER_28_377
*2830 FILLER_28_38
*2831 FILLER_28_380
*2832 FILLER_28_383
*2833 FILLER_28_41
*2834 FILLER_28_44
*2835 FILLER_28_47
*2836 FILLER_28_50
*2837 FILLER_28_53
*2838 FILLER_28_56
*2839 FILLER_28_59
*2840 FILLER_28_6
*2841 FILLER_28_62
*2842 FILLER_28_65
*2843 FILLER_28_68
*2844 FILLER_28_71
*2845 FILLER_28_76
*2846 FILLER_28_79
*2847 FILLER_28_82
*2848 FILLER_28_85
*2849 FILLER_28_88
*2850 FILLER_28_9
*2851 FILLER_28_91
*2852 FILLER_28_94
*2853 FILLER_28_97
*2854 FILLER_29_100
*2855 FILLER_29_103
*2856 FILLER_29_109
*2857 FILLER_29_113
*2858 FILLER_29_119
*2859 FILLER_29_12
*2860 FILLER_29_122
*2861 FILLER_29_125
*2862 FILLER_29_128
*2863 FILLER_29_131
*2864 FILLER_29_143
*2865 FILLER_29_146
*2866 FILLER_29_149
*2867 FILLER_29_15
*2868 FILLER_29_152
*2869 FILLER_29_155
*2870 FILLER_29_158
*2871 FILLER_29_171
*2872 FILLER_29_174
*2873 FILLER_29_177
*2874 FILLER_29_18
*2875 FILLER_29_180
*2876 FILLER_29_183
*2877 FILLER_29_186
*2878 FILLER_29_189
*2879 FILLER_29_192
*2880 FILLER_29_195
*2881 FILLER_29_198
*2882 FILLER_29_201
*2883 FILLER_29_204
*2884 FILLER_29_207
*2885 FILLER_29_21
*2886 FILLER_29_210
*2887 FILLER_29_213
*2888 FILLER_29_216
*2889 FILLER_29_219
*2890 FILLER_29_222
*2891 FILLER_29_231
*2892 FILLER_29_234
*2893 FILLER_29_237
*2894 FILLER_29_24
*2895 FILLER_29_246
*2896 FILLER_29_253
*2897 FILLER_29_256
*2898 FILLER_29_259
*2899 FILLER_29_262
*2900 FILLER_29_265
*2901 FILLER_29_268
*2902 FILLER_29_27
*2903 FILLER_29_271
*2904 FILLER_29_274
*2905 FILLER_29_277
*2906 FILLER_29_293
*2907 FILLER_29_296
*2908 FILLER_29_299
*2909 FILLER_29_3
*2910 FILLER_29_30
*2911 FILLER_29_302
*2912 FILLER_29_305
*2913 FILLER_29_308
*2914 FILLER_29_311
*2915 FILLER_29_314
*2916 FILLER_29_317
*2917 FILLER_29_320
*2918 FILLER_29_323
*2919 FILLER_29_326
*2920 FILLER_29_329
*2921 FILLER_29_33
*2922 FILLER_29_332
*2923 FILLER_29_335
*2924 FILLER_29_337
*2925 FILLER_29_340
*2926 FILLER_29_343
*2927 FILLER_29_346
*2928 FILLER_29_350
*2929 FILLER_29_353
*2930 FILLER_29_356
*2931 FILLER_29_359
*2932 FILLER_29_36
*2933 FILLER_29_362
*2934 FILLER_29_365
*2935 FILLER_29_368
*2936 FILLER_29_371
*2937 FILLER_29_374
*2938 FILLER_29_377
*2939 FILLER_29_380
*2940 FILLER_29_383
*2941 FILLER_29_39
*2942 FILLER_29_42
*2943 FILLER_29_45
*2944 FILLER_29_48
*2945 FILLER_29_51
*2946 FILLER_29_54
*2947 FILLER_29_6
*2948 FILLER_29_71
*2949 FILLER_29_85
*2950 FILLER_29_88
*2951 FILLER_29_9
*2952 FILLER_29_94
*2953 FILLER_29_97
*2954 FILLER_2_12
*2955 FILLER_2_141
*2956 FILLER_2_15
*2957 FILLER_2_167
*2958 FILLER_2_170
*2959 FILLER_2_173
*2960 FILLER_2_176
*2961 FILLER_2_179
*2962 FILLER_2_18
*2963 FILLER_2_182
*2964 FILLER_2_209
*2965 FILLER_2_21
*2966 FILLER_2_212
*2967 FILLER_2_215
*2968 FILLER_2_218
*2969 FILLER_2_221
*2970 FILLER_2_24
*2971 FILLER_2_253
*2972 FILLER_2_27
*2973 FILLER_2_286
*2974 FILLER_2_3
*2975 FILLER_2_301
*2976 FILLER_2_304
*2977 FILLER_2_307
*2978 FILLER_2_309
*2979 FILLER_2_312
*2980 FILLER_2_315
*2981 FILLER_2_318
*2982 FILLER_2_321
*2983 FILLER_2_324
*2984 FILLER_2_327
*2985 FILLER_2_330
*2986 FILLER_2_333
*2987 FILLER_2_336
*2988 FILLER_2_339
*2989 FILLER_2_342
*2990 FILLER_2_345
*2991 FILLER_2_348
*2992 FILLER_2_351
*2993 FILLER_2_354
*2994 FILLER_2_357
*2995 FILLER_2_360
*2996 FILLER_2_363
*2997 FILLER_2_365
*2998 FILLER_2_368
*2999 FILLER_2_371
*3000 FILLER_2_374
*3001 FILLER_2_377
*3002 FILLER_2_380
*3003 FILLER_2_383
*3004 FILLER_2_43
*3005 FILLER_2_46
*3006 FILLER_2_49
*3007 FILLER_2_52
*3008 FILLER_2_55
*3009 FILLER_2_58
*3010 FILLER_2_6
*3011 FILLER_2_61
*3012 FILLER_2_64
*3013 FILLER_2_67
*3014 FILLER_2_70
*3015 FILLER_2_73
*3016 FILLER_2_88
*3017 FILLER_2_9
*3018 FILLER_2_91
*3019 FILLER_30_100
*3020 FILLER_30_103
*3021 FILLER_30_106
*3022 FILLER_30_109
*3023 FILLER_30_112
*3024 FILLER_30_115
*3025 FILLER_30_118
*3026 FILLER_30_121
*3027 FILLER_30_124
*3028 FILLER_30_127
*3029 FILLER_30_130
*3030 FILLER_30_133
*3031 FILLER_30_136
*3032 FILLER_30_139
*3033 FILLER_30_141
*3034 FILLER_30_146
*3035 FILLER_30_152
*3036 FILLER_30_155
*3037 FILLER_30_161
*3038 FILLER_30_165
*3039 FILLER_30_168
*3040 FILLER_30_171
*3041 FILLER_30_175
*3042 FILLER_30_178
*3043 FILLER_30_181
*3044 FILLER_30_197
*3045 FILLER_30_200
*3046 FILLER_30_203
*3047 FILLER_30_206
*3048 FILLER_30_209
*3049 FILLER_30_212
*3050 FILLER_30_215
*3051 FILLER_30_218
*3052 FILLER_30_221
*3053 FILLER_30_224
*3054 FILLER_30_227
*3055 FILLER_30_236
*3056 FILLER_30_239
*3057 FILLER_30_24
*3058 FILLER_30_265
*3059 FILLER_30_268
*3060 FILLER_30_27
*3061 FILLER_30_271
*3062 FILLER_30_274
*3063 FILLER_30_277
*3064 FILLER_30_280
*3065 FILLER_30_283
*3066 FILLER_30_286
*3067 FILLER_30_289
*3068 FILLER_30_292
*3069 FILLER_30_295
*3070 FILLER_30_298
*3071 FILLER_30_3
*3072 FILLER_30_301
*3073 FILLER_30_304
*3074 FILLER_30_307
*3075 FILLER_30_309
*3076 FILLER_30_312
*3077 FILLER_30_315
*3078 FILLER_30_318
*3079 FILLER_30_321
*3080 FILLER_30_324
*3081 FILLER_30_327
*3082 FILLER_30_330
*3083 FILLER_30_333
*3084 FILLER_30_336
*3085 FILLER_30_339
*3086 FILLER_30_342
*3087 FILLER_30_345
*3088 FILLER_30_348
*3089 FILLER_30_351
*3090 FILLER_30_354
*3091 FILLER_30_357
*3092 FILLER_30_360
*3093 FILLER_30_363
*3094 FILLER_30_365
*3095 FILLER_30_368
*3096 FILLER_30_371
*3097 FILLER_30_374
*3098 FILLER_30_377
*3099 FILLER_30_380
*3100 FILLER_30_383
*3101 FILLER_30_43
*3102 FILLER_30_46
*3103 FILLER_30_49
*3104 FILLER_30_52
*3105 FILLER_30_55
*3106 FILLER_30_58
*3107 FILLER_30_6
*3108 FILLER_30_61
*3109 FILLER_30_77
*3110 FILLER_30_85
*3111 FILLER_30_88
*3112 FILLER_30_9
*3113 FILLER_30_91
*3114 FILLER_30_94
*3115 FILLER_30_97
*3116 FILLER_31_121
*3117 FILLER_31_124
*3118 FILLER_31_127
*3119 FILLER_31_177
*3120 FILLER_31_180
*3121 FILLER_31_183
*3122 FILLER_31_189
*3123 FILLER_31_192
*3124 FILLER_31_195
*3125 FILLER_31_198
*3126 FILLER_31_201
*3127 FILLER_31_204
*3128 FILLER_31_207
*3129 FILLER_31_210
*3130 FILLER_31_213
*3131 FILLER_31_216
*3132 FILLER_31_219
*3133 FILLER_31_222
*3134 FILLER_31_225
*3135 FILLER_31_24
*3136 FILLER_31_244
*3137 FILLER_31_27
*3138 FILLER_31_270
*3139 FILLER_31_273
*3140 FILLER_31_276
*3141 FILLER_31_279
*3142 FILLER_31_281
*3143 FILLER_31_284
*3144 FILLER_31_287
*3145 FILLER_31_290
*3146 FILLER_31_293
*3147 FILLER_31_296
*3148 FILLER_31_299
*3149 FILLER_31_3
*3150 FILLER_31_30
*3151 FILLER_31_302
*3152 FILLER_31_305
*3153 FILLER_31_308
*3154 FILLER_31_311
*3155 FILLER_31_314
*3156 FILLER_31_317
*3157 FILLER_31_320
*3158 FILLER_31_323
*3159 FILLER_31_326
*3160 FILLER_31_329
*3161 FILLER_31_33
*3162 FILLER_31_332
*3163 FILLER_31_335
*3164 FILLER_31_337
*3165 FILLER_31_340
*3166 FILLER_31_343
*3167 FILLER_31_346
*3168 FILLER_31_349
*3169 FILLER_31_352
*3170 FILLER_31_355
*3171 FILLER_31_358
*3172 FILLER_31_36
*3173 FILLER_31_361
*3174 FILLER_31_364
*3175 FILLER_31_367
*3176 FILLER_31_370
*3177 FILLER_31_373
*3178 FILLER_31_376
*3179 FILLER_31_379
*3180 FILLER_31_382
*3181 FILLER_31_39
*3182 FILLER_31_42
*3183 FILLER_31_45
*3184 FILLER_31_48
*3185 FILLER_31_51
*3186 FILLER_31_54
*3187 FILLER_31_57
*3188 FILLER_31_6
*3189 FILLER_31_60
*3190 FILLER_31_63
*3191 FILLER_31_73
*3192 FILLER_31_89
*3193 FILLER_31_9
*3194 FILLER_31_92
*3195 FILLER_31_95
*3196 FILLER_31_98
*3197 FILLER_32_103
*3198 FILLER_32_115
*3199 FILLER_32_118
*3200 FILLER_32_12
*3201 FILLER_32_121
*3202 FILLER_32_124
*3203 FILLER_32_127
*3204 FILLER_32_130
*3205 FILLER_32_133
*3206 FILLER_32_136
*3207 FILLER_32_139
*3208 FILLER_32_141
*3209 FILLER_32_176
*3210 FILLER_32_179
*3211 FILLER_32_182
*3212 FILLER_32_185
*3213 FILLER_32_188
*3214 FILLER_32_191
*3215 FILLER_32_194
*3216 FILLER_32_197
*3217 FILLER_32_200
*3218 FILLER_32_203
*3219 FILLER_32_206
*3220 FILLER_32_209
*3221 FILLER_32_212
*3222 FILLER_32_215
*3223 FILLER_32_218
*3224 FILLER_32_221
*3225 FILLER_32_224
*3226 FILLER_32_227
*3227 FILLER_32_242
*3228 FILLER_32_245
*3229 FILLER_32_248
*3230 FILLER_32_251
*3231 FILLER_32_253
*3232 FILLER_32_256
*3233 FILLER_32_259
*3234 FILLER_32_262
*3235 FILLER_32_265
*3236 FILLER_32_268
*3237 FILLER_32_271
*3238 FILLER_32_274
*3239 FILLER_32_277
*3240 FILLER_32_280
*3241 FILLER_32_283
*3242 FILLER_32_286
*3243 FILLER_32_289
*3244 FILLER_32_3
*3245 FILLER_32_302
*3246 FILLER_32_305
*3247 FILLER_32_323
*3248 FILLER_32_326
*3249 FILLER_32_329
*3250 FILLER_32_332
*3251 FILLER_32_335
*3252 FILLER_32_338
*3253 FILLER_32_341
*3254 FILLER_32_344
*3255 FILLER_32_347
*3256 FILLER_32_350
*3257 FILLER_32_353
*3258 FILLER_32_356
*3259 FILLER_32_359
*3260 FILLER_32_362
*3261 FILLER_32_365
*3262 FILLER_32_368
*3263 FILLER_32_371
*3264 FILLER_32_374
*3265 FILLER_32_377
*3266 FILLER_32_380
*3267 FILLER_32_383
*3268 FILLER_32_43
*3269 FILLER_32_46
*3270 FILLER_32_49
*3271 FILLER_32_52
*3272 FILLER_32_55
*3273 FILLER_32_58
*3274 FILLER_32_6
*3275 FILLER_32_61
*3276 FILLER_32_64
*3277 FILLER_32_67
*3278 FILLER_32_81
*3279 FILLER_32_85
*3280 FILLER_32_9
*3281 FILLER_33_101
*3282 FILLER_33_104
*3283 FILLER_33_109
*3284 FILLER_33_113
*3285 FILLER_33_116
*3286 FILLER_33_119
*3287 FILLER_33_12
*3288 FILLER_33_122
*3289 FILLER_33_125
*3290 FILLER_33_128
*3291 FILLER_33_131
*3292 FILLER_33_134
*3293 FILLER_33_137
*3294 FILLER_33_140
*3295 FILLER_33_143
*3296 FILLER_33_146
*3297 FILLER_33_149
*3298 FILLER_33_15
*3299 FILLER_33_152
*3300 FILLER_33_156
*3301 FILLER_33_159
*3302 FILLER_33_164
*3303 FILLER_33_171
*3304 FILLER_33_174
*3305 FILLER_33_177
*3306 FILLER_33_180
*3307 FILLER_33_183
*3308 FILLER_33_186
*3309 FILLER_33_189
*3310 FILLER_33_192
*3311 FILLER_33_195
*3312 FILLER_33_198
*3313 FILLER_33_201
*3314 FILLER_33_204
*3315 FILLER_33_207
*3316 FILLER_33_210
*3317 FILLER_33_213
*3318 FILLER_33_216
*3319 FILLER_33_219
*3320 FILLER_33_222
*3321 FILLER_33_225
*3322 FILLER_33_228
*3323 FILLER_33_231
*3324 FILLER_33_234
*3325 FILLER_33_248
*3326 FILLER_33_251
*3327 FILLER_33_254
*3328 FILLER_33_257
*3329 FILLER_33_260
*3330 FILLER_33_263
*3331 FILLER_33_277
*3332 FILLER_33_281
*3333 FILLER_33_3
*3334 FILLER_33_30
*3335 FILLER_33_307
*3336 FILLER_33_310
*3337 FILLER_33_313
*3338 FILLER_33_316
*3339 FILLER_33_319
*3340 FILLER_33_322
*3341 FILLER_33_325
*3342 FILLER_33_328
*3343 FILLER_33_33
*3344 FILLER_33_331
*3345 FILLER_33_334
*3346 FILLER_33_337
*3347 FILLER_33_340
*3348 FILLER_33_343
*3349 FILLER_33_346
*3350 FILLER_33_349
*3351 FILLER_33_352
*3352 FILLER_33_355
*3353 FILLER_33_358
*3354 FILLER_33_36
*3355 FILLER_33_361
*3356 FILLER_33_364
*3357 FILLER_33_367
*3358 FILLER_33_370
*3359 FILLER_33_373
*3360 FILLER_33_376
*3361 FILLER_33_379
*3362 FILLER_33_382
*3363 FILLER_33_39
*3364 FILLER_33_42
*3365 FILLER_33_45
*3366 FILLER_33_48
*3367 FILLER_33_51
*3368 FILLER_33_54
*3369 FILLER_33_57
*3370 FILLER_33_6
*3371 FILLER_33_60
*3372 FILLER_33_63
*3373 FILLER_33_66
*3374 FILLER_33_69
*3375 FILLER_33_72
*3376 FILLER_33_77
*3377 FILLER_33_80
*3378 FILLER_33_83
*3379 FILLER_33_86
*3380 FILLER_33_89
*3381 FILLER_33_9
*3382 FILLER_33_92
*3383 FILLER_33_95
*3384 FILLER_33_98
*3385 FILLER_34_100
*3386 FILLER_34_103
*3387 FILLER_34_106
*3388 FILLER_34_109
*3389 FILLER_34_112
*3390 FILLER_34_115
*3391 FILLER_34_118
*3392 FILLER_34_12
*3393 FILLER_34_121
*3394 FILLER_34_141
*3395 FILLER_34_144
*3396 FILLER_34_147
*3397 FILLER_34_15
*3398 FILLER_34_150
*3399 FILLER_34_153
*3400 FILLER_34_156
*3401 FILLER_34_159
*3402 FILLER_34_18
*3403 FILLER_34_181
*3404 FILLER_34_184
*3405 FILLER_34_187
*3406 FILLER_34_190
*3407 FILLER_34_193
*3408 FILLER_34_197
*3409 FILLER_34_200
*3410 FILLER_34_203
*3411 FILLER_34_206
*3412 FILLER_34_209
*3413 FILLER_34_21
*3414 FILLER_34_212
*3415 FILLER_34_215
*3416 FILLER_34_218
*3417 FILLER_34_221
*3418 FILLER_34_224
*3419 FILLER_34_227
*3420 FILLER_34_230
*3421 FILLER_34_233
*3422 FILLER_34_236
*3423 FILLER_34_239
*3424 FILLER_34_24
*3425 FILLER_34_242
*3426 FILLER_34_245
*3427 FILLER_34_248
*3428 FILLER_34_251
*3429 FILLER_34_253
*3430 FILLER_34_256
*3431 FILLER_34_259
*3432 FILLER_34_262
*3433 FILLER_34_265
*3434 FILLER_34_27
*3435 FILLER_34_278
*3436 FILLER_34_281
*3437 FILLER_34_284
*3438 FILLER_34_29
*3439 FILLER_34_299
*3440 FILLER_34_3
*3441 FILLER_34_302
*3442 FILLER_34_305
*3443 FILLER_34_309
*3444 FILLER_34_312
*3445 FILLER_34_315
*3446 FILLER_34_318
*3447 FILLER_34_32
*3448 FILLER_34_333
*3449 FILLER_34_336
*3450 FILLER_34_339
*3451 FILLER_34_342
*3452 FILLER_34_345
*3453 FILLER_34_348
*3454 FILLER_34_35
*3455 FILLER_34_351
*3456 FILLER_34_354
*3457 FILLER_34_357
*3458 FILLER_34_360
*3459 FILLER_34_363
*3460 FILLER_34_365
*3461 FILLER_34_368
*3462 FILLER_34_371
*3463 FILLER_34_374
*3464 FILLER_34_377
*3465 FILLER_34_38
*3466 FILLER_34_380
*3467 FILLER_34_383
*3468 FILLER_34_41
*3469 FILLER_34_44
*3470 FILLER_34_47
*3471 FILLER_34_50
*3472 FILLER_34_53
*3473 FILLER_34_56
*3474 FILLER_34_59
*3475 FILLER_34_6
*3476 FILLER_34_62
*3477 FILLER_34_65
*3478 FILLER_34_68
*3479 FILLER_34_82
*3480 FILLER_34_85
*3481 FILLER_34_88
*3482 FILLER_34_9
*3483 FILLER_34_91
*3484 FILLER_34_94
*3485 FILLER_34_97
*3486 FILLER_35_102
*3487 FILLER_35_12
*3488 FILLER_35_122
*3489 FILLER_35_125
*3490 FILLER_35_131
*3491 FILLER_35_15
*3492 FILLER_35_151
*3493 FILLER_35_154
*3494 FILLER_35_157
*3495 FILLER_35_169
*3496 FILLER_35_172
*3497 FILLER_35_175
*3498 FILLER_35_178
*3499 FILLER_35_18
*3500 FILLER_35_181
*3501 FILLER_35_184
*3502 FILLER_35_192
*3503 FILLER_35_195
*3504 FILLER_35_198
*3505 FILLER_35_201
*3506 FILLER_35_204
*3507 FILLER_35_207
*3508 FILLER_35_21
*3509 FILLER_35_210
*3510 FILLER_35_213
*3511 FILLER_35_222
*3512 FILLER_35_225
*3513 FILLER_35_228
*3514 FILLER_35_231
*3515 FILLER_35_234
*3516 FILLER_35_237
*3517 FILLER_35_24
*3518 FILLER_35_240
*3519 FILLER_35_243
*3520 FILLER_35_246
*3521 FILLER_35_249
*3522 FILLER_35_252
*3523 FILLER_35_255
*3524 FILLER_35_258
*3525 FILLER_35_261
*3526 FILLER_35_264
*3527 FILLER_35_267
*3528 FILLER_35_27
*3529 FILLER_35_270
*3530 FILLER_35_273
*3531 FILLER_35_276
*3532 FILLER_35_279
*3533 FILLER_35_281
*3534 FILLER_35_284
*3535 FILLER_35_287
*3536 FILLER_35_290
*3537 FILLER_35_293
*3538 FILLER_35_296
*3539 FILLER_35_299
*3540 FILLER_35_3
*3541 FILLER_35_30
*3542 FILLER_35_302
*3543 FILLER_35_305
*3544 FILLER_35_308
*3545 FILLER_35_311
*3546 FILLER_35_314
*3547 FILLER_35_317
*3548 FILLER_35_320
*3549 FILLER_35_323
*3550 FILLER_35_326
*3551 FILLER_35_329
*3552 FILLER_35_33
*3553 FILLER_35_332
*3554 FILLER_35_335
*3555 FILLER_35_337
*3556 FILLER_35_340
*3557 FILLER_35_343
*3558 FILLER_35_346
*3559 FILLER_35_349
*3560 FILLER_35_352
*3561 FILLER_35_355
*3562 FILLER_35_358
*3563 FILLER_35_36
*3564 FILLER_35_361
*3565 FILLER_35_364
*3566 FILLER_35_367
*3567 FILLER_35_370
*3568 FILLER_35_373
*3569 FILLER_35_376
*3570 FILLER_35_379
*3571 FILLER_35_382
*3572 FILLER_35_39
*3573 FILLER_35_42
*3574 FILLER_35_45
*3575 FILLER_35_48
*3576 FILLER_35_51
*3577 FILLER_35_54
*3578 FILLER_35_57
*3579 FILLER_35_6
*3580 FILLER_35_76
*3581 FILLER_35_87
*3582 FILLER_35_9
*3583 FILLER_35_90
*3584 FILLER_35_93
*3585 FILLER_35_96
*3586 FILLER_35_99
*3587 FILLER_36_109
*3588 FILLER_36_12
*3589 FILLER_36_132
*3590 FILLER_36_141
*3591 FILLER_36_151
*3592 FILLER_36_154
*3593 FILLER_36_170
*3594 FILLER_36_173
*3595 FILLER_36_176
*3596 FILLER_36_179
*3597 FILLER_36_182
*3598 FILLER_36_197
*3599 FILLER_36_200
*3600 FILLER_36_203
*3601 FILLER_36_206
*3602 FILLER_36_209
*3603 FILLER_36_234
*3604 FILLER_36_241
*3605 FILLER_36_248
*3606 FILLER_36_251
*3607 FILLER_36_259
*3608 FILLER_36_262
*3609 FILLER_36_265
*3610 FILLER_36_268
*3611 FILLER_36_275
*3612 FILLER_36_278
*3613 FILLER_36_287
*3614 FILLER_36_29
*3615 FILLER_36_290
*3616 FILLER_36_293
*3617 FILLER_36_296
*3618 FILLER_36_299
*3619 FILLER_36_3
*3620 FILLER_36_302
*3621 FILLER_36_305
*3622 FILLER_36_309
*3623 FILLER_36_312
*3624 FILLER_36_315
*3625 FILLER_36_318
*3626 FILLER_36_32
*3627 FILLER_36_321
*3628 FILLER_36_324
*3629 FILLER_36_327
*3630 FILLER_36_330
*3631 FILLER_36_333
*3632 FILLER_36_350
*3633 FILLER_36_353
*3634 FILLER_36_356
*3635 FILLER_36_359
*3636 FILLER_36_362
*3637 FILLER_36_365
*3638 FILLER_36_368
*3639 FILLER_36_371
*3640 FILLER_36_374
*3641 FILLER_36_377
*3642 FILLER_36_380
*3643 FILLER_36_383
*3644 FILLER_36_47
*3645 FILLER_36_50
*3646 FILLER_36_53
*3647 FILLER_36_56
*3648 FILLER_36_59
*3649 FILLER_36_6
*3650 FILLER_36_75
*3651 FILLER_36_9
*3652 FILLER_36_96
*3653 FILLER_37_105
*3654 FILLER_37_113
*3655 FILLER_37_116
*3656 FILLER_37_119
*3657 FILLER_37_122
*3658 FILLER_37_127
*3659 FILLER_37_164
*3660 FILLER_37_167
*3661 FILLER_37_169
*3662 FILLER_37_172
*3663 FILLER_37_175
*3664 FILLER_37_179
*3665 FILLER_37_182
*3666 FILLER_37_209
*3667 FILLER_37_222
*3668 FILLER_37_24
*3669 FILLER_37_261
*3670 FILLER_37_264
*3671 FILLER_37_267
*3672 FILLER_37_293
*3673 FILLER_37_296
*3674 FILLER_37_299
*3675 FILLER_37_3
*3676 FILLER_37_329
*3677 FILLER_37_332
*3678 FILLER_37_335
*3679 FILLER_37_365
*3680 FILLER_37_368
*3681 FILLER_37_371
*3682 FILLER_37_374
*3683 FILLER_37_377
*3684 FILLER_37_380
*3685 FILLER_37_383
*3686 FILLER_37_39
*3687 FILLER_37_57
*3688 FILLER_37_6
*3689 FILLER_37_60
*3690 FILLER_37_63
*3691 FILLER_37_66
*3692 FILLER_37_69
*3693 FILLER_37_84
*3694 FILLER_37_88
*3695 FILLER_37_9
*3696 FILLER_37_91
*3697 FILLER_38_102
*3698 FILLER_38_105
*3699 FILLER_38_108
*3700 FILLER_38_111
*3701 FILLER_38_113
*3702 FILLER_38_116
*3703 FILLER_38_119
*3704 FILLER_38_12
*3705 FILLER_38_122
*3706 FILLER_38_125
*3707 FILLER_38_128
*3708 FILLER_38_131
*3709 FILLER_38_134
*3710 FILLER_38_137
*3711 FILLER_38_141
*3712 FILLER_38_144
*3713 FILLER_38_147
*3714 FILLER_38_15
*3715 FILLER_38_150
*3716 FILLER_38_153
*3717 FILLER_38_156
*3718 FILLER_38_159
*3719 FILLER_38_162
*3720 FILLER_38_165
*3721 FILLER_38_169
*3722 FILLER_38_172
*3723 FILLER_38_175
*3724 FILLER_38_178
*3725 FILLER_38_18
*3726 FILLER_38_181
*3727 FILLER_38_184
*3728 FILLER_38_187
*3729 FILLER_38_190
*3730 FILLER_38_194
*3731 FILLER_38_209
*3732 FILLER_38_21
*3733 FILLER_38_212
*3734 FILLER_38_215
*3735 FILLER_38_218
*3736 FILLER_38_221
*3737 FILLER_38_225
*3738 FILLER_38_228
*3739 FILLER_38_231
*3740 FILLER_38_234
*3741 FILLER_38_237
*3742 FILLER_38_24
*3743 FILLER_38_240
*3744 FILLER_38_243
*3745 FILLER_38_246
*3746 FILLER_38_249
*3747 FILLER_38_265
*3748 FILLER_38_268
*3749 FILLER_38_27
*3750 FILLER_38_271
*3751 FILLER_38_274
*3752 FILLER_38_277
*3753 FILLER_38_281
*3754 FILLER_38_284
*3755 FILLER_38_287
*3756 FILLER_38_29
*3757 FILLER_38_290
*3758 FILLER_38_3
*3759 FILLER_38_303
*3760 FILLER_38_309
*3761 FILLER_38_312
*3762 FILLER_38_315
*3763 FILLER_38_318
*3764 FILLER_38_32
*3765 FILLER_38_321
*3766 FILLER_38_337
*3767 FILLER_38_340
*3768 FILLER_38_343
*3769 FILLER_38_346
*3770 FILLER_38_349
*3771 FILLER_38_35
*3772 FILLER_38_365
*3773 FILLER_38_368
*3774 FILLER_38_371
*3775 FILLER_38_374
*3776 FILLER_38_377
*3777 FILLER_38_380
*3778 FILLER_38_383
*3779 FILLER_38_51
*3780 FILLER_38_54
*3781 FILLER_38_57
*3782 FILLER_38_6
*3783 FILLER_38_60
*3784 FILLER_38_63
*3785 FILLER_38_66
*3786 FILLER_38_69
*3787 FILLER_38_72
*3788 FILLER_38_79
*3789 FILLER_38_82
*3790 FILLER_38_85
*3791 FILLER_38_88
*3792 FILLER_38_9
*3793 FILLER_38_91
*3794 FILLER_38_94
*3795 FILLER_38_99
*3796 FILLER_3_106
*3797 FILLER_3_109
*3798 FILLER_3_113
*3799 FILLER_3_116
*3800 FILLER_3_119
*3801 FILLER_3_12
*3802 FILLER_3_122
*3803 FILLER_3_132
*3804 FILLER_3_135
*3805 FILLER_3_15
*3806 FILLER_3_153
*3807 FILLER_3_156
*3808 FILLER_3_166
*3809 FILLER_3_169
*3810 FILLER_3_172
*3811 FILLER_3_175
*3812 FILLER_3_178
*3813 FILLER_3_18
*3814 FILLER_3_189
*3815 FILLER_3_206
*3816 FILLER_3_209
*3817 FILLER_3_21
*3818 FILLER_3_212
*3819 FILLER_3_215
*3820 FILLER_3_218
*3821 FILLER_3_221
*3822 FILLER_3_225
*3823 FILLER_3_24
*3824 FILLER_3_240
*3825 FILLER_3_243
*3826 FILLER_3_246
*3827 FILLER_3_249
*3828 FILLER_3_252
*3829 FILLER_3_255
*3830 FILLER_3_258
*3831 FILLER_3_261
*3832 FILLER_3_264
*3833 FILLER_3_267
*3834 FILLER_3_27
*3835 FILLER_3_270
*3836 FILLER_3_273
*3837 FILLER_3_276
*3838 FILLER_3_279
*3839 FILLER_3_281
*3840 FILLER_3_290
*3841 FILLER_3_293
*3842 FILLER_3_296
*3843 FILLER_3_299
*3844 FILLER_3_3
*3845 FILLER_3_30
*3846 FILLER_3_302
*3847 FILLER_3_305
*3848 FILLER_3_308
*3849 FILLER_3_311
*3850 FILLER_3_314
*3851 FILLER_3_317
*3852 FILLER_3_320
*3853 FILLER_3_323
*3854 FILLER_3_326
*3855 FILLER_3_329
*3856 FILLER_3_33
*3857 FILLER_3_332
*3858 FILLER_3_335
*3859 FILLER_3_337
*3860 FILLER_3_340
*3861 FILLER_3_343
*3862 FILLER_3_346
*3863 FILLER_3_349
*3864 FILLER_3_352
*3865 FILLER_3_355
*3866 FILLER_3_358
*3867 FILLER_3_36
*3868 FILLER_3_361
*3869 FILLER_3_364
*3870 FILLER_3_367
*3871 FILLER_3_370
*3872 FILLER_3_373
*3873 FILLER_3_376
*3874 FILLER_3_379
*3875 FILLER_3_382
*3876 FILLER_3_40
*3877 FILLER_3_43
*3878 FILLER_3_46
*3879 FILLER_3_49
*3880 FILLER_3_52
*3881 FILLER_3_55
*3882 FILLER_3_57
*3883 FILLER_3_6
*3884 FILLER_3_60
*3885 FILLER_3_63
*3886 FILLER_3_66
*3887 FILLER_3_69
*3888 FILLER_3_72
*3889 FILLER_3_9
*3890 FILLER_4_100
*3891 FILLER_4_103
*3892 FILLER_4_106
*3893 FILLER_4_109
*3894 FILLER_4_112
*3895 FILLER_4_115
*3896 FILLER_4_118
*3897 FILLER_4_12
*3898 FILLER_4_121
*3899 FILLER_4_124
*3900 FILLER_4_127
*3901 FILLER_4_130
*3902 FILLER_4_136
*3903 FILLER_4_139
*3904 FILLER_4_141
*3905 FILLER_4_144
*3906 FILLER_4_147
*3907 FILLER_4_15
*3908 FILLER_4_150
*3909 FILLER_4_153
*3910 FILLER_4_156
*3911 FILLER_4_159
*3912 FILLER_4_162
*3913 FILLER_4_18
*3914 FILLER_4_181
*3915 FILLER_4_194
*3916 FILLER_4_197
*3917 FILLER_4_200
*3918 FILLER_4_203
*3919 FILLER_4_206
*3920 FILLER_4_209
*3921 FILLER_4_21
*3922 FILLER_4_212
*3923 FILLER_4_215
*3924 FILLER_4_218
*3925 FILLER_4_221
*3926 FILLER_4_224
*3927 FILLER_4_227
*3928 FILLER_4_230
*3929 FILLER_4_233
*3930 FILLER_4_236
*3931 FILLER_4_239
*3932 FILLER_4_24
*3933 FILLER_4_242
*3934 FILLER_4_245
*3935 FILLER_4_248
*3936 FILLER_4_251
*3937 FILLER_4_253
*3938 FILLER_4_256
*3939 FILLER_4_259
*3940 FILLER_4_262
*3941 FILLER_4_265
*3942 FILLER_4_268
*3943 FILLER_4_27
*3944 FILLER_4_29
*3945 FILLER_4_3
*3946 FILLER_4_305
*3947 FILLER_4_309
*3948 FILLER_4_312
*3949 FILLER_4_315
*3950 FILLER_4_318
*3951 FILLER_4_32
*3952 FILLER_4_321
*3953 FILLER_4_324
*3954 FILLER_4_327
*3955 FILLER_4_330
*3956 FILLER_4_333
*3957 FILLER_4_336
*3958 FILLER_4_339
*3959 FILLER_4_342
*3960 FILLER_4_345
*3961 FILLER_4_348
*3962 FILLER_4_35
*3963 FILLER_4_351
*3964 FILLER_4_354
*3965 FILLER_4_357
*3966 FILLER_4_360
*3967 FILLER_4_363
*3968 FILLER_4_365
*3969 FILLER_4_368
*3970 FILLER_4_371
*3971 FILLER_4_374
*3972 FILLER_4_377
*3973 FILLER_4_38
*3974 FILLER_4_380
*3975 FILLER_4_383
*3976 FILLER_4_41
*3977 FILLER_4_44
*3978 FILLER_4_47
*3979 FILLER_4_50
*3980 FILLER_4_53
*3981 FILLER_4_56
*3982 FILLER_4_59
*3983 FILLER_4_6
*3984 FILLER_4_62
*3985 FILLER_4_65
*3986 FILLER_4_68
*3987 FILLER_4_71
*3988 FILLER_4_74
*3989 FILLER_4_77
*3990 FILLER_4_80
*3991 FILLER_4_83
*3992 FILLER_4_85
*3993 FILLER_4_88
*3994 FILLER_4_9
*3995 FILLER_4_91
*3996 FILLER_4_94
*3997 FILLER_4_97
*3998 FILLER_5_101
*3999 FILLER_5_104
*4000 FILLER_5_107
*4001 FILLER_5_110
*4002 FILLER_5_113
*4003 FILLER_5_116
*4004 FILLER_5_119
*4005 FILLER_5_12
*4006 FILLER_5_122
*4007 FILLER_5_134
*4008 FILLER_5_137
*4009 FILLER_5_140
*4010 FILLER_5_143
*4011 FILLER_5_146
*4012 FILLER_5_149
*4013 FILLER_5_15
*4014 FILLER_5_152
*4015 FILLER_5_155
*4016 FILLER_5_158
*4017 FILLER_5_161
*4018 FILLER_5_164
*4019 FILLER_5_167
*4020 FILLER_5_169
*4021 FILLER_5_172
*4022 FILLER_5_175
*4023 FILLER_5_178
*4024 FILLER_5_18
*4025 FILLER_5_181
*4026 FILLER_5_184
*4027 FILLER_5_187
*4028 FILLER_5_190
*4029 FILLER_5_193
*4030 FILLER_5_196
*4031 FILLER_5_199
*4032 FILLER_5_202
*4033 FILLER_5_205
*4034 FILLER_5_208
*4035 FILLER_5_21
*4036 FILLER_5_211
*4037 FILLER_5_225
*4038 FILLER_5_228
*4039 FILLER_5_231
*4040 FILLER_5_234
*4041 FILLER_5_237
*4042 FILLER_5_24
*4043 FILLER_5_240
*4044 FILLER_5_243
*4045 FILLER_5_246
*4046 FILLER_5_249
*4047 FILLER_5_252
*4048 FILLER_5_255
*4049 FILLER_5_258
*4050 FILLER_5_27
*4051 FILLER_5_272
*4052 FILLER_5_275
*4053 FILLER_5_278
*4054 FILLER_5_281
*4055 FILLER_5_284
*4056 FILLER_5_287
*4057 FILLER_5_290
*4058 FILLER_5_293
*4059 FILLER_5_296
*4060 FILLER_5_299
*4061 FILLER_5_3
*4062 FILLER_5_30
*4063 FILLER_5_302
*4064 FILLER_5_305
*4065 FILLER_5_308
*4066 FILLER_5_311
*4067 FILLER_5_314
*4068 FILLER_5_317
*4069 FILLER_5_320
*4070 FILLER_5_323
*4071 FILLER_5_326
*4072 FILLER_5_329
*4073 FILLER_5_33
*4074 FILLER_5_332
*4075 FILLER_5_335
*4076 FILLER_5_337
*4077 FILLER_5_340
*4078 FILLER_5_343
*4079 FILLER_5_346
*4080 FILLER_5_349
*4081 FILLER_5_352
*4082 FILLER_5_355
*4083 FILLER_5_358
*4084 FILLER_5_36
*4085 FILLER_5_361
*4086 FILLER_5_364
*4087 FILLER_5_367
*4088 FILLER_5_370
*4089 FILLER_5_373
*4090 FILLER_5_376
*4091 FILLER_5_379
*4092 FILLER_5_382
*4093 FILLER_5_39
*4094 FILLER_5_42
*4095 FILLER_5_45
*4096 FILLER_5_50
*4097 FILLER_5_53
*4098 FILLER_5_57
*4099 FILLER_5_6
*4100 FILLER_5_62
*4101 FILLER_5_65
*4102 FILLER_5_68
*4103 FILLER_5_71
*4104 FILLER_5_74
*4105 FILLER_5_77
*4106 FILLER_5_80
*4107 FILLER_5_83
*4108 FILLER_5_86
*4109 FILLER_5_89
*4110 FILLER_5_9
*4111 FILLER_5_92
*4112 FILLER_5_95
*4113 FILLER_5_98
*4114 FILLER_6_100
*4115 FILLER_6_103
*4116 FILLER_6_106
*4117 FILLER_6_109
*4118 FILLER_6_112
*4119 FILLER_6_115
*4120 FILLER_6_118
*4121 FILLER_6_12
*4122 FILLER_6_121
*4123 FILLER_6_124
*4124 FILLER_6_127
*4125 FILLER_6_130
*4126 FILLER_6_133
*4127 FILLER_6_136
*4128 FILLER_6_139
*4129 FILLER_6_141
*4130 FILLER_6_144
*4131 FILLER_6_147
*4132 FILLER_6_15
*4133 FILLER_6_150
*4134 FILLER_6_153
*4135 FILLER_6_156
*4136 FILLER_6_159
*4137 FILLER_6_162
*4138 FILLER_6_169
*4139 FILLER_6_172
*4140 FILLER_6_175
*4141 FILLER_6_178
*4142 FILLER_6_18
*4143 FILLER_6_181
*4144 FILLER_6_184
*4145 FILLER_6_187
*4146 FILLER_6_190
*4147 FILLER_6_193
*4148 FILLER_6_197
*4149 FILLER_6_200
*4150 FILLER_6_203
*4151 FILLER_6_206
*4152 FILLER_6_21
*4153 FILLER_6_24
*4154 FILLER_6_244
*4155 FILLER_6_247
*4156 FILLER_6_250
*4157 FILLER_6_253
*4158 FILLER_6_256
*4159 FILLER_6_259
*4160 FILLER_6_262
*4161 FILLER_6_265
*4162 FILLER_6_27
*4163 FILLER_6_29
*4164 FILLER_6_292
*4165 FILLER_6_295
*4166 FILLER_6_298
*4167 FILLER_6_3
*4168 FILLER_6_301
*4169 FILLER_6_304
*4170 FILLER_6_307
*4171 FILLER_6_309
*4172 FILLER_6_312
*4173 FILLER_6_315
*4174 FILLER_6_318
*4175 FILLER_6_32
*4176 FILLER_6_321
*4177 FILLER_6_324
*4178 FILLER_6_327
*4179 FILLER_6_330
*4180 FILLER_6_333
*4181 FILLER_6_336
*4182 FILLER_6_339
*4183 FILLER_6_342
*4184 FILLER_6_345
*4185 FILLER_6_348
*4186 FILLER_6_35
*4187 FILLER_6_351
*4188 FILLER_6_354
*4189 FILLER_6_357
*4190 FILLER_6_360
*4191 FILLER_6_363
*4192 FILLER_6_365
*4193 FILLER_6_368
*4194 FILLER_6_371
*4195 FILLER_6_374
*4196 FILLER_6_377
*4197 FILLER_6_38
*4198 FILLER_6_380
*4199 FILLER_6_383
*4200 FILLER_6_41
*4201 FILLER_6_44
*4202 FILLER_6_47
*4203 FILLER_6_50
*4204 FILLER_6_53
*4205 FILLER_6_56
*4206 FILLER_6_59
*4207 FILLER_6_6
*4208 FILLER_6_62
*4209 FILLER_6_65
*4210 FILLER_6_68
*4211 FILLER_6_71
*4212 FILLER_6_74
*4213 FILLER_6_77
*4214 FILLER_6_80
*4215 FILLER_6_83
*4216 FILLER_6_85
*4217 FILLER_6_88
*4218 FILLER_6_9
*4219 FILLER_6_91
*4220 FILLER_6_94
*4221 FILLER_6_97
*4222 FILLER_7_102
*4223 FILLER_7_105
*4224 FILLER_7_108
*4225 FILLER_7_111
*4226 FILLER_7_113
*4227 FILLER_7_116
*4228 FILLER_7_119
*4229 FILLER_7_12
*4230 FILLER_7_122
*4231 FILLER_7_125
*4232 FILLER_7_128
*4233 FILLER_7_131
*4234 FILLER_7_136
*4235 FILLER_7_139
*4236 FILLER_7_142
*4237 FILLER_7_145
*4238 FILLER_7_148
*4239 FILLER_7_15
*4240 FILLER_7_151
*4241 FILLER_7_154
*4242 FILLER_7_157
*4243 FILLER_7_160
*4244 FILLER_7_163
*4245 FILLER_7_166
*4246 FILLER_7_169
*4247 FILLER_7_172
*4248 FILLER_7_175
*4249 FILLER_7_178
*4250 FILLER_7_18
*4251 FILLER_7_181
*4252 FILLER_7_184
*4253 FILLER_7_187
*4254 FILLER_7_190
*4255 FILLER_7_193
*4256 FILLER_7_196
*4257 FILLER_7_199
*4258 FILLER_7_202
*4259 FILLER_7_21
*4260 FILLER_7_221
*4261 FILLER_7_237
*4262 FILLER_7_24
*4263 FILLER_7_240
*4264 FILLER_7_243
*4265 FILLER_7_246
*4266 FILLER_7_249
*4267 FILLER_7_252
*4268 FILLER_7_255
*4269 FILLER_7_258
*4270 FILLER_7_261
*4271 FILLER_7_27
*4272 FILLER_7_270
*4273 FILLER_7_273
*4274 FILLER_7_276
*4275 FILLER_7_279
*4276 FILLER_7_281
*4277 FILLER_7_296
*4278 FILLER_7_299
*4279 FILLER_7_3
*4280 FILLER_7_30
*4281 FILLER_7_302
*4282 FILLER_7_305
*4283 FILLER_7_308
*4284 FILLER_7_311
*4285 FILLER_7_314
*4286 FILLER_7_317
*4287 FILLER_7_320
*4288 FILLER_7_323
*4289 FILLER_7_326
*4290 FILLER_7_329
*4291 FILLER_7_33
*4292 FILLER_7_332
*4293 FILLER_7_335
*4294 FILLER_7_337
*4295 FILLER_7_340
*4296 FILLER_7_343
*4297 FILLER_7_346
*4298 FILLER_7_349
*4299 FILLER_7_352
*4300 FILLER_7_355
*4301 FILLER_7_358
*4302 FILLER_7_36
*4303 FILLER_7_361
*4304 FILLER_7_364
*4305 FILLER_7_367
*4306 FILLER_7_370
*4307 FILLER_7_373
*4308 FILLER_7_376
*4309 FILLER_7_379
*4310 FILLER_7_382
*4311 FILLER_7_39
*4312 FILLER_7_42
*4313 FILLER_7_45
*4314 FILLER_7_48
*4315 FILLER_7_51
*4316 FILLER_7_54
*4317 FILLER_7_57
*4318 FILLER_7_6
*4319 FILLER_7_60
*4320 FILLER_7_63
*4321 FILLER_7_66
*4322 FILLER_7_69
*4323 FILLER_7_72
*4324 FILLER_7_75
*4325 FILLER_7_78
*4326 FILLER_7_81
*4327 FILLER_7_84
*4328 FILLER_7_87
*4329 FILLER_7_9
*4330 FILLER_7_90
*4331 FILLER_7_93
*4332 FILLER_7_96
*4333 FILLER_7_99
*4334 FILLER_8_100
*4335 FILLER_8_103
*4336 FILLER_8_106
*4337 FILLER_8_109
*4338 FILLER_8_112
*4339 FILLER_8_115
*4340 FILLER_8_118
*4341 FILLER_8_12
*4342 FILLER_8_121
*4343 FILLER_8_124
*4344 FILLER_8_127
*4345 FILLER_8_130
*4346 FILLER_8_133
*4347 FILLER_8_136
*4348 FILLER_8_141
*4349 FILLER_8_144
*4350 FILLER_8_147
*4351 FILLER_8_15
*4352 FILLER_8_150
*4353 FILLER_8_153
*4354 FILLER_8_156
*4355 FILLER_8_159
*4356 FILLER_8_162
*4357 FILLER_8_165
*4358 FILLER_8_168
*4359 FILLER_8_171
*4360 FILLER_8_174
*4361 FILLER_8_18
*4362 FILLER_8_189
*4363 FILLER_8_192
*4364 FILLER_8_195
*4365 FILLER_8_197
*4366 FILLER_8_200
*4367 FILLER_8_203
*4368 FILLER_8_21
*4369 FILLER_8_211
*4370 FILLER_8_214
*4371 FILLER_8_223
*4372 FILLER_8_24
*4373 FILLER_8_244
*4374 FILLER_8_247
*4375 FILLER_8_250
*4376 FILLER_8_253
*4377 FILLER_8_256
*4378 FILLER_8_259
*4379 FILLER_8_262
*4380 FILLER_8_27
*4381 FILLER_8_288
*4382 FILLER_8_29
*4383 FILLER_8_291
*4384 FILLER_8_294
*4385 FILLER_8_297
*4386 FILLER_8_3
*4387 FILLER_8_300
*4388 FILLER_8_303
*4389 FILLER_8_306
*4390 FILLER_8_309
*4391 FILLER_8_312
*4392 FILLER_8_315
*4393 FILLER_8_318
*4394 FILLER_8_32
*4395 FILLER_8_321
*4396 FILLER_8_324
*4397 FILLER_8_327
*4398 FILLER_8_330
*4399 FILLER_8_333
*4400 FILLER_8_336
*4401 FILLER_8_339
*4402 FILLER_8_342
*4403 FILLER_8_345
*4404 FILLER_8_348
*4405 FILLER_8_35
*4406 FILLER_8_351
*4407 FILLER_8_354
*4408 FILLER_8_357
*4409 FILLER_8_360
*4410 FILLER_8_363
*4411 FILLER_8_365
*4412 FILLER_8_368
*4413 FILLER_8_371
*4414 FILLER_8_374
*4415 FILLER_8_377
*4416 FILLER_8_38
*4417 FILLER_8_380
*4418 FILLER_8_383
*4419 FILLER_8_41
*4420 FILLER_8_44
*4421 FILLER_8_47
*4422 FILLER_8_50
*4423 FILLER_8_53
*4424 FILLER_8_56
*4425 FILLER_8_59
*4426 FILLER_8_6
*4427 FILLER_8_62
*4428 FILLER_8_65
*4429 FILLER_8_68
*4430 FILLER_8_71
*4431 FILLER_8_74
*4432 FILLER_8_77
*4433 FILLER_8_80
*4434 FILLER_8_83
*4435 FILLER_8_85
*4436 FILLER_8_88
*4437 FILLER_8_9
*4438 FILLER_8_91
*4439 FILLER_8_94
*4440 FILLER_8_97
*4441 FILLER_9_102
*4442 FILLER_9_105
*4443 FILLER_9_108
*4444 FILLER_9_111
*4445 FILLER_9_113
*4446 FILLER_9_116
*4447 FILLER_9_119
*4448 FILLER_9_12
*4449 FILLER_9_122
*4450 FILLER_9_125
*4451 FILLER_9_128
*4452 FILLER_9_131
*4453 FILLER_9_134
*4454 FILLER_9_137
*4455 FILLER_9_140
*4456 FILLER_9_143
*4457 FILLER_9_146
*4458 FILLER_9_149
*4459 FILLER_9_15
*4460 FILLER_9_152
*4461 FILLER_9_155
*4462 FILLER_9_158
*4463 FILLER_9_161
*4464 FILLER_9_164
*4465 FILLER_9_167
*4466 FILLER_9_169
*4467 FILLER_9_172
*4468 FILLER_9_175
*4469 FILLER_9_178
*4470 FILLER_9_18
*4471 FILLER_9_185
*4472 FILLER_9_188
*4473 FILLER_9_191
*4474 FILLER_9_194
*4475 FILLER_9_197
*4476 FILLER_9_200
*4477 FILLER_9_203
*4478 FILLER_9_206
*4479 FILLER_9_209
*4480 FILLER_9_21
*4481 FILLER_9_212
*4482 FILLER_9_215
*4483 FILLER_9_218
*4484 FILLER_9_221
*4485 FILLER_9_225
*4486 FILLER_9_228
*4487 FILLER_9_231
*4488 FILLER_9_234
*4489 FILLER_9_237
*4490 FILLER_9_24
*4491 FILLER_9_240
*4492 FILLER_9_243
*4493 FILLER_9_246
*4494 FILLER_9_249
*4495 FILLER_9_252
*4496 FILLER_9_255
*4497 FILLER_9_258
*4498 FILLER_9_261
*4499 FILLER_9_264
*4500 FILLER_9_267
*4501 FILLER_9_27
*4502 FILLER_9_293
*4503 FILLER_9_296
*4504 FILLER_9_299
*4505 FILLER_9_3
*4506 FILLER_9_30
*4507 FILLER_9_302
*4508 FILLER_9_305
*4509 FILLER_9_308
*4510 FILLER_9_311
*4511 FILLER_9_314
*4512 FILLER_9_317
*4513 FILLER_9_320
*4514 FILLER_9_323
*4515 FILLER_9_326
*4516 FILLER_9_329
*4517 FILLER_9_33
*4518 FILLER_9_332
*4519 FILLER_9_335
*4520 FILLER_9_339
*4521 FILLER_9_342
*4522 FILLER_9_345
*4523 FILLER_9_348
*4524 FILLER_9_351
*4525 FILLER_9_354
*4526 FILLER_9_357
*4527 FILLER_9_36
*4528 FILLER_9_360
*4529 FILLER_9_363
*4530 FILLER_9_366
*4531 FILLER_9_369
*4532 FILLER_9_372
*4533 FILLER_9_375
*4534 FILLER_9_378
*4535 FILLER_9_381
*4536 FILLER_9_384
*4537 FILLER_9_39
*4538 FILLER_9_42
*4539 FILLER_9_45
*4540 FILLER_9_48
*4541 FILLER_9_51
*4542 FILLER_9_54
*4543 FILLER_9_57
*4544 FILLER_9_6
*4545 FILLER_9_60
*4546 FILLER_9_63
*4547 FILLER_9_66
*4548 FILLER_9_69
*4549 FILLER_9_72
*4550 FILLER_9_75
*4551 FILLER_9_78
*4552 FILLER_9_81
*4553 FILLER_9_84
*4554 FILLER_9_87
*4555 FILLER_9_9
*4556 FILLER_9_90
*4557 FILLER_9_93
*4558 FILLER_9_96
*4559 FILLER_9_99
*4560 PHY_EDGE_ROW_0_Left_39
*4561 PHY_EDGE_ROW_0_Right_0
*4562 PHY_EDGE_ROW_10_Left_49
*4563 PHY_EDGE_ROW_10_Right_10
*4564 PHY_EDGE_ROW_11_Left_50
*4565 PHY_EDGE_ROW_11_Right_11
*4566 PHY_EDGE_ROW_12_Left_51
*4567 PHY_EDGE_ROW_12_Right_12
*4568 PHY_EDGE_ROW_13_Left_52
*4569 PHY_EDGE_ROW_13_Right_13
*4570 PHY_EDGE_ROW_14_Left_53
*4571 PHY_EDGE_ROW_14_Right_14
*4572 PHY_EDGE_ROW_15_Left_54
*4573 PHY_EDGE_ROW_15_Right_15
*4574 PHY_EDGE_ROW_16_Left_55
*4575 PHY_EDGE_ROW_16_Right_16
*4576 PHY_EDGE_ROW_17_Left_56
*4577 PHY_EDGE_ROW_17_Right_17
*4578 PHY_EDGE_ROW_18_Left_57
*4579 PHY_EDGE_ROW_18_Right_18
*4580 PHY_EDGE_ROW_19_Left_58
*4581 PHY_EDGE_ROW_19_Right_19
*4582 PHY_EDGE_ROW_1_Left_40
*4583 PHY_EDGE_ROW_1_Right_1
*4584 PHY_EDGE_ROW_20_Left_59
*4585 PHY_EDGE_ROW_20_Right_20
*4586 PHY_EDGE_ROW_21_Left_60
*4587 PHY_EDGE_ROW_21_Right_21
*4588 PHY_EDGE_ROW_22_Left_61
*4589 PHY_EDGE_ROW_22_Right_22
*4590 PHY_EDGE_ROW_23_Left_62
*4591 PHY_EDGE_ROW_23_Right_23
*4592 PHY_EDGE_ROW_24_Left_63
*4593 PHY_EDGE_ROW_24_Right_24
*4594 PHY_EDGE_ROW_25_Left_64
*4595 PHY_EDGE_ROW_25_Right_25
*4596 PHY_EDGE_ROW_26_Left_65
*4597 PHY_EDGE_ROW_26_Right_26
*4598 PHY_EDGE_ROW_27_Left_66
*4599 PHY_EDGE_ROW_27_Right_27
*4600 PHY_EDGE_ROW_28_Left_67
*4601 PHY_EDGE_ROW_28_Right_28
*4602 PHY_EDGE_ROW_29_Left_68
*4603 PHY_EDGE_ROW_29_Right_29
*4604 PHY_EDGE_ROW_2_Left_41
*4605 PHY_EDGE_ROW_2_Right_2
*4606 PHY_EDGE_ROW_30_Left_69
*4607 PHY_EDGE_ROW_30_Right_30
*4608 PHY_EDGE_ROW_31_Left_70
*4609 PHY_EDGE_ROW_31_Right_31
*4610 PHY_EDGE_ROW_32_Left_71
*4611 PHY_EDGE_ROW_32_Right_32
*4612 PHY_EDGE_ROW_33_Left_72
*4613 PHY_EDGE_ROW_33_Right_33
*4614 PHY_EDGE_ROW_34_Left_73
*4615 PHY_EDGE_ROW_34_Right_34
*4616 PHY_EDGE_ROW_35_Left_74
*4617 PHY_EDGE_ROW_35_Right_35
*4618 PHY_EDGE_ROW_36_Left_75
*4619 PHY_EDGE_ROW_36_Right_36
*4620 PHY_EDGE_ROW_37_Left_76
*4621 PHY_EDGE_ROW_37_Right_37
*4622 PHY_EDGE_ROW_38_Left_77
*4623 PHY_EDGE_ROW_38_Right_38
*4624 PHY_EDGE_ROW_3_Left_42
*4625 PHY_EDGE_ROW_3_Right_3
*4626 PHY_EDGE_ROW_4_Left_43
*4627 PHY_EDGE_ROW_4_Right_4
*4628 PHY_EDGE_ROW_5_Left_44
*4629 PHY_EDGE_ROW_5_Right_5
*4630 PHY_EDGE_ROW_6_Left_45
*4631 PHY_EDGE_ROW_6_Right_6
*4632 PHY_EDGE_ROW_7_Left_46
*4633 PHY_EDGE_ROW_7_Right_7
*4634 PHY_EDGE_ROW_8_Left_47
*4635 PHY_EDGE_ROW_8_Right_8
*4636 PHY_EDGE_ROW_9_Left_48
*4637 PHY_EDGE_ROW_9_Right_9
*4638 TAP_TAPCELL_ROW_0_78
*4639 TAP_TAPCELL_ROW_0_79
*4640 TAP_TAPCELL_ROW_0_80
*4641 TAP_TAPCELL_ROW_0_81
*4642 TAP_TAPCELL_ROW_0_82
*4643 TAP_TAPCELL_ROW_0_83
*4644 TAP_TAPCELL_ROW_0_84
*4645 TAP_TAPCELL_ROW_0_85
*4646 TAP_TAPCELL_ROW_0_86
*4647 TAP_TAPCELL_ROW_0_87
*4648 TAP_TAPCELL_ROW_0_88
*4649 TAP_TAPCELL_ROW_0_89
*4650 TAP_TAPCELL_ROW_0_90
*4651 TAP_TAPCELL_ROW_10_149
*4652 TAP_TAPCELL_ROW_10_150
*4653 TAP_TAPCELL_ROW_10_151
*4654 TAP_TAPCELL_ROW_10_152
*4655 TAP_TAPCELL_ROW_10_153
*4656 TAP_TAPCELL_ROW_10_154
*4657 TAP_TAPCELL_ROW_10_155
*4658 TAP_TAPCELL_ROW_11_156
*4659 TAP_TAPCELL_ROW_11_157
*4660 TAP_TAPCELL_ROW_11_158
*4661 TAP_TAPCELL_ROW_11_159
*4662 TAP_TAPCELL_ROW_11_160
*4663 TAP_TAPCELL_ROW_11_161
*4664 TAP_TAPCELL_ROW_12_162
*4665 TAP_TAPCELL_ROW_12_163
*4666 TAP_TAPCELL_ROW_12_164
*4667 TAP_TAPCELL_ROW_12_165
*4668 TAP_TAPCELL_ROW_12_166
*4669 TAP_TAPCELL_ROW_12_167
*4670 TAP_TAPCELL_ROW_12_168
*4671 TAP_TAPCELL_ROW_13_169
*4672 TAP_TAPCELL_ROW_13_170
*4673 TAP_TAPCELL_ROW_13_171
*4674 TAP_TAPCELL_ROW_13_172
*4675 TAP_TAPCELL_ROW_13_173
*4676 TAP_TAPCELL_ROW_13_174
*4677 TAP_TAPCELL_ROW_14_175
*4678 TAP_TAPCELL_ROW_14_176
*4679 TAP_TAPCELL_ROW_14_177
*4680 TAP_TAPCELL_ROW_14_178
*4681 TAP_TAPCELL_ROW_14_179
*4682 TAP_TAPCELL_ROW_14_180
*4683 TAP_TAPCELL_ROW_14_181
*4684 TAP_TAPCELL_ROW_15_182
*4685 TAP_TAPCELL_ROW_15_183
*4686 TAP_TAPCELL_ROW_15_184
*4687 TAP_TAPCELL_ROW_15_185
*4688 TAP_TAPCELL_ROW_15_186
*4689 TAP_TAPCELL_ROW_15_187
*4690 TAP_TAPCELL_ROW_16_188
*4691 TAP_TAPCELL_ROW_16_189
*4692 TAP_TAPCELL_ROW_16_190
*4693 TAP_TAPCELL_ROW_16_191
*4694 TAP_TAPCELL_ROW_16_192
*4695 TAP_TAPCELL_ROW_16_193
*4696 TAP_TAPCELL_ROW_16_194
*4697 TAP_TAPCELL_ROW_17_195
*4698 TAP_TAPCELL_ROW_17_196
*4699 TAP_TAPCELL_ROW_17_197
*4700 TAP_TAPCELL_ROW_17_198
*4701 TAP_TAPCELL_ROW_17_199
*4702 TAP_TAPCELL_ROW_17_200
*4703 TAP_TAPCELL_ROW_18_201
*4704 TAP_TAPCELL_ROW_18_202
*4705 TAP_TAPCELL_ROW_18_203
*4706 TAP_TAPCELL_ROW_18_204
*4707 TAP_TAPCELL_ROW_18_205
*4708 TAP_TAPCELL_ROW_18_206
*4709 TAP_TAPCELL_ROW_18_207
*4710 TAP_TAPCELL_ROW_19_208
*4711 TAP_TAPCELL_ROW_19_209
*4712 TAP_TAPCELL_ROW_19_210
*4713 TAP_TAPCELL_ROW_19_211
*4714 TAP_TAPCELL_ROW_19_212
*4715 TAP_TAPCELL_ROW_19_213
*4716 TAP_TAPCELL_ROW_1_91
*4717 TAP_TAPCELL_ROW_1_92
*4718 TAP_TAPCELL_ROW_1_93
*4719 TAP_TAPCELL_ROW_1_94
*4720 TAP_TAPCELL_ROW_1_95
*4721 TAP_TAPCELL_ROW_1_96
*4722 TAP_TAPCELL_ROW_20_214
*4723 TAP_TAPCELL_ROW_20_215
*4724 TAP_TAPCELL_ROW_20_216
*4725 TAP_TAPCELL_ROW_20_217
*4726 TAP_TAPCELL_ROW_20_218
*4727 TAP_TAPCELL_ROW_20_219
*4728 TAP_TAPCELL_ROW_20_220
*4729 TAP_TAPCELL_ROW_21_221
*4730 TAP_TAPCELL_ROW_21_222
*4731 TAP_TAPCELL_ROW_21_223
*4732 TAP_TAPCELL_ROW_21_224
*4733 TAP_TAPCELL_ROW_21_225
*4734 TAP_TAPCELL_ROW_21_226
*4735 TAP_TAPCELL_ROW_22_227
*4736 TAP_TAPCELL_ROW_22_228
*4737 TAP_TAPCELL_ROW_22_229
*4738 TAP_TAPCELL_ROW_22_230
*4739 TAP_TAPCELL_ROW_22_231
*4740 TAP_TAPCELL_ROW_22_232
*4741 TAP_TAPCELL_ROW_22_233
*4742 TAP_TAPCELL_ROW_23_234
*4743 TAP_TAPCELL_ROW_23_235
*4744 TAP_TAPCELL_ROW_23_236
*4745 TAP_TAPCELL_ROW_23_237
*4746 TAP_TAPCELL_ROW_23_238
*4747 TAP_TAPCELL_ROW_23_239
*4748 TAP_TAPCELL_ROW_24_240
*4749 TAP_TAPCELL_ROW_24_241
*4750 TAP_TAPCELL_ROW_24_242
*4751 TAP_TAPCELL_ROW_24_243
*4752 TAP_TAPCELL_ROW_24_244
*4753 TAP_TAPCELL_ROW_24_245
*4754 TAP_TAPCELL_ROW_24_246
*4755 TAP_TAPCELL_ROW_25_247
*4756 TAP_TAPCELL_ROW_25_248
*4757 TAP_TAPCELL_ROW_25_249
*4758 TAP_TAPCELL_ROW_25_250
*4759 TAP_TAPCELL_ROW_25_251
*4760 TAP_TAPCELL_ROW_25_252
*4761 TAP_TAPCELL_ROW_26_253
*4762 TAP_TAPCELL_ROW_26_254
*4763 TAP_TAPCELL_ROW_26_255
*4764 TAP_TAPCELL_ROW_26_256
*4765 TAP_TAPCELL_ROW_26_257
*4766 TAP_TAPCELL_ROW_26_258
*4767 TAP_TAPCELL_ROW_26_259
*4768 TAP_TAPCELL_ROW_27_260
*4769 TAP_TAPCELL_ROW_27_261
*4770 TAP_TAPCELL_ROW_27_262
*4771 TAP_TAPCELL_ROW_27_263
*4772 TAP_TAPCELL_ROW_27_264
*4773 TAP_TAPCELL_ROW_27_265
*4774 TAP_TAPCELL_ROW_28_266
*4775 TAP_TAPCELL_ROW_28_267
*4776 TAP_TAPCELL_ROW_28_268
*4777 TAP_TAPCELL_ROW_28_269
*4778 TAP_TAPCELL_ROW_28_270
*4779 TAP_TAPCELL_ROW_28_271
*4780 TAP_TAPCELL_ROW_28_272
*4781 TAP_TAPCELL_ROW_29_273
*4782 TAP_TAPCELL_ROW_29_274
*4783 TAP_TAPCELL_ROW_29_275
*4784 TAP_TAPCELL_ROW_29_276
*4785 TAP_TAPCELL_ROW_29_277
*4786 TAP_TAPCELL_ROW_29_278
*4787 TAP_TAPCELL_ROW_2_100
*4788 TAP_TAPCELL_ROW_2_101
*4789 TAP_TAPCELL_ROW_2_102
*4790 TAP_TAPCELL_ROW_2_103
*4791 TAP_TAPCELL_ROW_2_97
*4792 TAP_TAPCELL_ROW_2_98
*4793 TAP_TAPCELL_ROW_2_99
*4794 TAP_TAPCELL_ROW_30_279
*4795 TAP_TAPCELL_ROW_30_280
*4796 TAP_TAPCELL_ROW_30_281
*4797 TAP_TAPCELL_ROW_30_282
*4798 TAP_TAPCELL_ROW_30_283
*4799 TAP_TAPCELL_ROW_30_284
*4800 TAP_TAPCELL_ROW_30_285
*4801 TAP_TAPCELL_ROW_31_286
*4802 TAP_TAPCELL_ROW_31_287
*4803 TAP_TAPCELL_ROW_31_288
*4804 TAP_TAPCELL_ROW_31_289
*4805 TAP_TAPCELL_ROW_31_290
*4806 TAP_TAPCELL_ROW_31_291
*4807 TAP_TAPCELL_ROW_32_292
*4808 TAP_TAPCELL_ROW_32_293
*4809 TAP_TAPCELL_ROW_32_294
*4810 TAP_TAPCELL_ROW_32_295
*4811 TAP_TAPCELL_ROW_32_296
*4812 TAP_TAPCELL_ROW_32_297
*4813 TAP_TAPCELL_ROW_32_298
*4814 TAP_TAPCELL_ROW_33_299
*4815 TAP_TAPCELL_ROW_33_300
*4816 TAP_TAPCELL_ROW_33_301
*4817 TAP_TAPCELL_ROW_33_302
*4818 TAP_TAPCELL_ROW_33_303
*4819 TAP_TAPCELL_ROW_33_304
*4820 TAP_TAPCELL_ROW_34_305
*4821 TAP_TAPCELL_ROW_34_306
*4822 TAP_TAPCELL_ROW_34_307
*4823 TAP_TAPCELL_ROW_34_308
*4824 TAP_TAPCELL_ROW_34_309
*4825 TAP_TAPCELL_ROW_34_310
*4826 TAP_TAPCELL_ROW_34_311
*4827 TAP_TAPCELL_ROW_35_312
*4828 TAP_TAPCELL_ROW_35_313
*4829 TAP_TAPCELL_ROW_35_314
*4830 TAP_TAPCELL_ROW_35_315
*4831 TAP_TAPCELL_ROW_35_316
*4832 TAP_TAPCELL_ROW_35_317
*4833 TAP_TAPCELL_ROW_36_318
*4834 TAP_TAPCELL_ROW_36_319
*4835 TAP_TAPCELL_ROW_36_320
*4836 TAP_TAPCELL_ROW_36_321
*4837 TAP_TAPCELL_ROW_36_322
*4838 TAP_TAPCELL_ROW_36_323
*4839 TAP_TAPCELL_ROW_36_324
*4840 TAP_TAPCELL_ROW_37_325
*4841 TAP_TAPCELL_ROW_37_326
*4842 TAP_TAPCELL_ROW_37_327
*4843 TAP_TAPCELL_ROW_37_328
*4844 TAP_TAPCELL_ROW_37_329
*4845 TAP_TAPCELL_ROW_37_330
*4846 TAP_TAPCELL_ROW_38_331
*4847 TAP_TAPCELL_ROW_38_332
*4848 TAP_TAPCELL_ROW_38_333
*4849 TAP_TAPCELL_ROW_38_334
*4850 TAP_TAPCELL_ROW_38_335
*4851 TAP_TAPCELL_ROW_38_336
*4852 TAP_TAPCELL_ROW_38_337
*4853 TAP_TAPCELL_ROW_38_338
*4854 TAP_TAPCELL_ROW_38_339
*4855 TAP_TAPCELL_ROW_38_340
*4856 TAP_TAPCELL_ROW_38_341
*4857 TAP_TAPCELL_ROW_38_342
*4858 TAP_TAPCELL_ROW_38_343
*4859 TAP_TAPCELL_ROW_3_104
*4860 TAP_TAPCELL_ROW_3_105
*4861 TAP_TAPCELL_ROW_3_106
*4862 TAP_TAPCELL_ROW_3_107
*4863 TAP_TAPCELL_ROW_3_108
*4864 TAP_TAPCELL_ROW_3_109
*4865 TAP_TAPCELL_ROW_4_110
*4866 TAP_TAPCELL_ROW_4_111
*4867 TAP_TAPCELL_ROW_4_112
*4868 TAP_TAPCELL_ROW_4_113
*4869 TAP_TAPCELL_ROW_4_114
*4870 TAP_TAPCELL_ROW_4_115
*4871 TAP_TAPCELL_ROW_4_116
*4872 TAP_TAPCELL_ROW_5_117
*4873 TAP_TAPCELL_ROW_5_118
*4874 TAP_TAPCELL_ROW_5_119
*4875 TAP_TAPCELL_ROW_5_120
*4876 TAP_TAPCELL_ROW_5_121
*4877 TAP_TAPCELL_ROW_5_122
*4878 TAP_TAPCELL_ROW_6_123
*4879 TAP_TAPCELL_ROW_6_124
*4880 TAP_TAPCELL_ROW_6_125
*4881 TAP_TAPCELL_ROW_6_126
*4882 TAP_TAPCELL_ROW_6_127
*4883 TAP_TAPCELL_ROW_6_128
*4884 TAP_TAPCELL_ROW_6_129
*4885 TAP_TAPCELL_ROW_7_130
*4886 TAP_TAPCELL_ROW_7_131
*4887 TAP_TAPCELL_ROW_7_132
*4888 TAP_TAPCELL_ROW_7_133
*4889 TAP_TAPCELL_ROW_7_134
*4890 TAP_TAPCELL_ROW_7_135
*4891 TAP_TAPCELL_ROW_8_136
*4892 TAP_TAPCELL_ROW_8_137
*4893 TAP_TAPCELL_ROW_8_138
*4894 TAP_TAPCELL_ROW_8_139
*4895 TAP_TAPCELL_ROW_8_140
*4896 TAP_TAPCELL_ROW_8_141
*4897 TAP_TAPCELL_ROW_8_142
*4898 TAP_TAPCELL_ROW_9_143
*4899 TAP_TAPCELL_ROW_9_144
*4900 TAP_TAPCELL_ROW_9_145
*4901 TAP_TAPCELL_ROW_9_146
*4902 TAP_TAPCELL_ROW_9_147
*4903 TAP_TAPCELL_ROW_9_148
*4904 _0_
*4905 _1_
*4906 ctrl_diode_I\[0\]\.cell0_I
*4907 ctrl_diode_I\[1\]\.cell0_I
*4908 ctrl_diode_I\[2\]\.cell0_I
*4909 ctrl_ibuf_I\[0\]\.genblk1\.cell0_I
*4910 ctrl_ibuf_I\[1\]\.genblk1\.cell0_I
*4911 ctrl_ibuf_I\[2\]\.genblk1\.cell0_I
*4912 genblk1\[0\]\.tbuf_pol_spine_ow_I\.cell0_I
*4913 genblk1\[0\]\.tbuf_spine_ow_I\[0\]\.genblk1\.cell0_I
*4914 genblk1\[0\]\.tbuf_spine_ow_I\[10\]\.genblk1\.cell0_I
*4915 genblk1\[0\]\.tbuf_spine_ow_I\[11\]\.genblk1\.cell0_I
*4916 genblk1\[0\]\.tbuf_spine_ow_I\[12\]\.genblk1\.cell0_I
*4917 genblk1\[0\]\.tbuf_spine_ow_I\[13\]\.genblk1\.cell0_I
*4918 genblk1\[0\]\.tbuf_spine_ow_I\[14\]\.genblk1\.cell0_I
*4919 genblk1\[0\]\.tbuf_spine_ow_I\[15\]\.genblk1\.cell0_I
*4920 genblk1\[0\]\.tbuf_spine_ow_I\[16\]\.genblk1\.cell0_I
*4921 genblk1\[0\]\.tbuf_spine_ow_I\[17\]\.genblk1\.cell0_I
*4922 genblk1\[0\]\.tbuf_spine_ow_I\[18\]\.genblk1\.cell0_I
*4923 genblk1\[0\]\.tbuf_spine_ow_I\[19\]\.genblk1\.cell0_I
*4924 genblk1\[0\]\.tbuf_spine_ow_I\[1\]\.genblk1\.cell0_I
*4925 genblk1\[0\]\.tbuf_spine_ow_I\[20\]\.genblk1\.cell0_I
*4926 genblk1\[0\]\.tbuf_spine_ow_I\[21\]\.genblk1\.cell0_I
*4927 genblk1\[0\]\.tbuf_spine_ow_I\[22\]\.genblk1\.cell0_I
*4928 genblk1\[0\]\.tbuf_spine_ow_I\[23\]\.genblk1\.cell0_I
*4929 genblk1\[0\]\.tbuf_spine_ow_I\[2\]\.genblk1\.cell0_I
*4930 genblk1\[0\]\.tbuf_spine_ow_I\[3\]\.genblk1\.cell0_I
*4931 genblk1\[0\]\.tbuf_spine_ow_I\[4\]\.genblk1\.cell0_I
*4932 genblk1\[0\]\.tbuf_spine_ow_I\[5\]\.genblk1\.cell0_I
*4933 genblk1\[0\]\.tbuf_spine_ow_I\[6\]\.genblk1\.cell0_I
*4934 genblk1\[0\]\.tbuf_spine_ow_I\[7\]\.genblk1\.cell0_I
*4935 genblk1\[0\]\.tbuf_spine_ow_I\[8\]\.genblk1\.cell0_I
*4936 genblk1\[0\]\.tbuf_spine_ow_I\[9\]\.genblk1\.cell0_I
*4937 genblk1\[0\]\.tie_I\.cell_I
*4938 genblk1\[1\]\.tbuf_pol_spine_ow_I\.cell0_I
*4939 genblk1\[1\]\.tbuf_spine_ow_I\[0\]\.genblk1\.cell0_I
*4940 genblk1\[1\]\.tbuf_spine_ow_I\[10\]\.genblk1\.cell0_I
*4941 genblk1\[1\]\.tbuf_spine_ow_I\[11\]\.genblk1\.cell0_I
*4942 genblk1\[1\]\.tbuf_spine_ow_I\[12\]\.genblk1\.cell0_I
*4943 genblk1\[1\]\.tbuf_spine_ow_I\[13\]\.genblk1\.cell0_I
*4944 genblk1\[1\]\.tbuf_spine_ow_I\[14\]\.genblk1\.cell0_I
*4945 genblk1\[1\]\.tbuf_spine_ow_I\[15\]\.genblk1\.cell0_I
*4946 genblk1\[1\]\.tbuf_spine_ow_I\[16\]\.genblk1\.cell0_I
*4947 genblk1\[1\]\.tbuf_spine_ow_I\[17\]\.genblk1\.cell0_I
*4948 genblk1\[1\]\.tbuf_spine_ow_I\[18\]\.genblk1\.cell0_I
*4949 genblk1\[1\]\.tbuf_spine_ow_I\[19\]\.genblk1\.cell0_I
*4950 genblk1\[1\]\.tbuf_spine_ow_I\[1\]\.genblk1\.cell0_I
*4951 genblk1\[1\]\.tbuf_spine_ow_I\[20\]\.genblk1\.cell0_I
*4952 genblk1\[1\]\.tbuf_spine_ow_I\[21\]\.genblk1\.cell0_I
*4953 genblk1\[1\]\.tbuf_spine_ow_I\[22\]\.genblk1\.cell0_I
*4954 genblk1\[1\]\.tbuf_spine_ow_I\[23\]\.genblk1\.cell0_I
*4955 genblk1\[1\]\.tbuf_spine_ow_I\[2\]\.genblk1\.cell0_I
*4956 genblk1\[1\]\.tbuf_spine_ow_I\[3\]\.genblk1\.cell0_I
*4957 genblk1\[1\]\.tbuf_spine_ow_I\[4\]\.genblk1\.cell0_I
*4958 genblk1\[1\]\.tbuf_spine_ow_I\[5\]\.genblk1\.cell0_I
*4959 genblk1\[1\]\.tbuf_spine_ow_I\[6\]\.genblk1\.cell0_I
*4960 genblk1\[1\]\.tbuf_spine_ow_I\[7\]\.genblk1\.cell0_I
*4961 genblk1\[1\]\.tbuf_spine_ow_I\[8\]\.genblk1\.cell0_I
*4962 genblk1\[1\]\.tbuf_spine_ow_I\[9\]\.genblk1\.cell0_I
*4963 genblk1\[1\]\.tie_I\.cell_I
*4964 genblk2\[0\]\.ctrl_ena_buf_I\.genblk1\.cell0_I
*4965 genblk2\[0\]\.pad_ui_in_buf_I\[0\]\.genblk1\.cell0_I
*4966 genblk2\[0\]\.pad_ui_in_buf_I\[0\]\.genblk1\.cell1_I
*4967 genblk2\[0\]\.pad_ui_in_buf_I\[1\]\.genblk1\.cell0_I
*4968 genblk2\[0\]\.pad_ui_in_buf_I\[1\]\.genblk1\.cell1_I
*4969 genblk2\[0\]\.pad_ui_in_buf_I\[2\]\.genblk1\.cell0_I
*4970 genblk2\[0\]\.pad_ui_in_buf_I\[2\]\.genblk1\.cell1_I
*4971 genblk2\[0\]\.pad_ui_in_buf_I\[3\]\.genblk1\.cell0_I
*4972 genblk2\[0\]\.pad_ui_in_buf_I\[3\]\.genblk1\.cell1_I
*4973 genblk2\[0\]\.pad_ui_in_buf_I\[4\]\.genblk1\.cell0_I
*4974 genblk2\[0\]\.pad_ui_in_buf_I\[4\]\.genblk1\.cell1_I
*4975 genblk2\[0\]\.pad_ui_in_buf_I\[5\]\.genblk1\.cell0_I
*4976 genblk2\[0\]\.pad_ui_in_buf_I\[5\]\.genblk1\.cell1_I
*4977 genblk2\[0\]\.pad_ui_in_buf_I\[6\]\.genblk1\.cell0_I
*4978 genblk2\[0\]\.pad_ui_in_buf_I\[6\]\.genblk1\.cell1_I
*4979 genblk2\[0\]\.pad_ui_in_buf_I\[7\]\.genblk1\.cell0_I
*4980 genblk2\[0\]\.pad_ui_in_buf_I\[7\]\.genblk1\.cell1_I
*4981 genblk2\[0\]\.pad_ui_in_buf_I\[8\]\.genblk1\.cell0_I
*4982 genblk2\[0\]\.pad_ui_in_buf_I\[8\]\.genblk1\.cell1_I
*4983 genblk2\[0\]\.pad_ui_in_buf_I\[9\]\.genblk1\.cell0_I
*4984 genblk2\[0\]\.pad_ui_in_buf_I\[9\]\.genblk1\.cell1_I
*4985 genblk2\[0\]\.pad_uio_in_buf_I\[0\]\.genblk1\.cell0_I
*4986 genblk2\[0\]\.pad_uio_in_buf_I\[0\]\.genblk1\.cell1_I
*4987 genblk2\[0\]\.pad_uio_in_buf_I\[1\]\.genblk1\.cell0_I
*4988 genblk2\[0\]\.pad_uio_in_buf_I\[1\]\.genblk1\.cell1_I
*4989 genblk2\[0\]\.pad_uio_in_buf_I\[2\]\.genblk1\.cell0_I
*4990 genblk2\[0\]\.pad_uio_in_buf_I\[2\]\.genblk1\.cell1_I
*4991 genblk2\[0\]\.pad_uio_in_buf_I\[3\]\.genblk1\.cell0_I
*4992 genblk2\[0\]\.pad_uio_in_buf_I\[3\]\.genblk1\.cell1_I
*4993 genblk2\[0\]\.pad_uio_in_buf_I\[4\]\.genblk1\.cell0_I
*4994 genblk2\[0\]\.pad_uio_in_buf_I\[4\]\.genblk1\.cell1_I
*4995 genblk2\[0\]\.pad_uio_in_buf_I\[5\]\.genblk1\.cell0_I
*4996 genblk2\[0\]\.pad_uio_in_buf_I\[5\]\.genblk1\.cell1_I
*4997 genblk2\[0\]\.pad_uio_in_buf_I\[6\]\.genblk1\.cell0_I
*4998 genblk2\[0\]\.pad_uio_in_buf_I\[6\]\.genblk1\.cell1_I
*4999 genblk2\[0\]\.pad_uio_in_buf_I\[7\]\.genblk1\.cell0_I
*5000 genblk2\[0\]\.pad_uio_in_buf_I\[7\]\.genblk1\.cell1_I
*5001 genblk2\[0\]\.sel_cnt_buf_I\[0\]\.genblk1\.cell0_I
*5002 genblk2\[0\]\.sel_cnt_buf_I\[1\]\.genblk1\.cell0_I
*5003 genblk2\[0\]\.sel_cnt_buf_I\[2\]\.genblk1\.cell0_I
*5004 genblk2\[0\]\.sel_cnt_buf_I\[3\]\.genblk1\.cell0_I
*5005 genblk2\[0\]\.sel_cnt_buf_I\[4\]\.genblk1\.cell0_I
*5006 genblk2\[0\]\.sel_cnt_buf_I\[5\]\.genblk1\.cell0_I
*5007 genblk2\[0\]\.sel_cnt_buf_I\[6\]\.genblk1\.cell0_I
*5008 genblk2\[0\]\.sel_cnt_buf_I\[7\]\.genblk1\.cell0_I
*5009 genblk2\[0\]\.sel_cnt_buf_I\[8\]\.genblk1\.cell0_I
*5010 genblk2\[0\]\.tie_guard_I\[0\]\.cell_I
*5011 genblk2\[0\]\.tie_guard_I\[1\]\.cell_I
*5012 genblk2\[1\]\.ctrl_ena_buf_I\.genblk1\.cell0_I
*5013 genblk2\[1\]\.pad_ui_in_buf_I\[0\]\.genblk1\.cell0_I
*5014 genblk2\[1\]\.pad_ui_in_buf_I\[0\]\.genblk1\.cell1_I
*5015 genblk2\[1\]\.pad_ui_in_buf_I\[1\]\.genblk1\.cell0_I
*5016 genblk2\[1\]\.pad_ui_in_buf_I\[1\]\.genblk1\.cell1_I
*5017 genblk2\[1\]\.pad_ui_in_buf_I\[2\]\.genblk1\.cell0_I
*5018 genblk2\[1\]\.pad_ui_in_buf_I\[2\]\.genblk1\.cell1_I
*5019 genblk2\[1\]\.pad_ui_in_buf_I\[3\]\.genblk1\.cell0_I
*5020 genblk2\[1\]\.pad_ui_in_buf_I\[3\]\.genblk1\.cell1_I
*5021 genblk2\[1\]\.pad_ui_in_buf_I\[4\]\.genblk1\.cell0_I
*5022 genblk2\[1\]\.pad_ui_in_buf_I\[4\]\.genblk1\.cell1_I
*5023 genblk2\[1\]\.pad_ui_in_buf_I\[5\]\.genblk1\.cell0_I
*5024 genblk2\[1\]\.pad_ui_in_buf_I\[5\]\.genblk1\.cell1_I
*5025 genblk2\[1\]\.pad_ui_in_buf_I\[6\]\.genblk1\.cell0_I
*5026 genblk2\[1\]\.pad_ui_in_buf_I\[6\]\.genblk1\.cell1_I
*5027 genblk2\[1\]\.pad_ui_in_buf_I\[7\]\.genblk1\.cell0_I
*5028 genblk2\[1\]\.pad_ui_in_buf_I\[7\]\.genblk1\.cell1_I
*5029 genblk2\[1\]\.pad_ui_in_buf_I\[8\]\.genblk1\.cell0_I
*5030 genblk2\[1\]\.pad_ui_in_buf_I\[8\]\.genblk1\.cell1_I
*5031 genblk2\[1\]\.pad_ui_in_buf_I\[9\]\.genblk1\.cell0_I
*5032 genblk2\[1\]\.pad_ui_in_buf_I\[9\]\.genblk1\.cell1_I
*5033 genblk2\[1\]\.pad_uio_in_buf_I\[0\]\.genblk1\.cell0_I
*5034 genblk2\[1\]\.pad_uio_in_buf_I\[0\]\.genblk1\.cell1_I
*5035 genblk2\[1\]\.pad_uio_in_buf_I\[1\]\.genblk1\.cell0_I
*5036 genblk2\[1\]\.pad_uio_in_buf_I\[1\]\.genblk1\.cell1_I
*5037 genblk2\[1\]\.pad_uio_in_buf_I\[2\]\.genblk1\.cell0_I
*5038 genblk2\[1\]\.pad_uio_in_buf_I\[2\]\.genblk1\.cell1_I
*5039 genblk2\[1\]\.pad_uio_in_buf_I\[3\]\.genblk1\.cell0_I
*5040 genblk2\[1\]\.pad_uio_in_buf_I\[3\]\.genblk1\.cell1_I
*5041 genblk2\[1\]\.pad_uio_in_buf_I\[4\]\.genblk1\.cell0_I
*5042 genblk2\[1\]\.pad_uio_in_buf_I\[4\]\.genblk1\.cell1_I
*5043 genblk2\[1\]\.pad_uio_in_buf_I\[5\]\.genblk1\.cell0_I
*5044 genblk2\[1\]\.pad_uio_in_buf_I\[5\]\.genblk1\.cell1_I
*5045 genblk2\[1\]\.pad_uio_in_buf_I\[6\]\.genblk1\.cell0_I
*5046 genblk2\[1\]\.pad_uio_in_buf_I\[6\]\.genblk1\.cell1_I
*5047 genblk2\[1\]\.pad_uio_in_buf_I\[7\]\.genblk1\.cell0_I
*5048 genblk2\[1\]\.pad_uio_in_buf_I\[7\]\.genblk1\.cell1_I
*5049 genblk2\[1\]\.sel_cnt_buf_I\[0\]\.genblk1\.cell0_I
*5050 genblk2\[1\]\.sel_cnt_buf_I\[1\]\.genblk1\.cell0_I
*5051 genblk2\[1\]\.sel_cnt_buf_I\[2\]\.genblk1\.cell0_I
*5052 genblk2\[1\]\.sel_cnt_buf_I\[3\]\.genblk1\.cell0_I
*5053 genblk2\[1\]\.sel_cnt_buf_I\[4\]\.genblk1\.cell0_I
*5054 genblk2\[1\]\.sel_cnt_buf_I\[5\]\.genblk1\.cell0_I
*5055 genblk2\[1\]\.sel_cnt_buf_I\[6\]\.genblk1\.cell0_I
*5056 genblk2\[1\]\.sel_cnt_buf_I\[7\]\.genblk1\.cell0_I
*5057 genblk2\[1\]\.sel_cnt_buf_I\[8\]\.genblk1\.cell0_I
*5058 genblk2\[1\]\.tie_guard_I\[0\]\.cell_I
*5059 genblk2\[1\]\.tie_guard_I\[1\]\.cell_I
*5060 pad_ui_in_diode_I\[0\]\.cell0_I
*5061 pad_ui_in_diode_I\[1\]\.cell0_I
*5062 pad_ui_in_diode_I\[2\]\.cell0_I
*5063 pad_ui_in_diode_I\[3\]\.cell0_I
*5064 pad_ui_in_diode_I\[4\]\.cell0_I
*5065 pad_ui_in_diode_I\[5\]\.cell0_I
*5066 pad_ui_in_diode_I\[6\]\.cell0_I
*5067 pad_ui_in_diode_I\[7\]\.cell0_I
*5068 pad_ui_in_diode_I\[8\]\.cell0_I
*5069 pad_ui_in_diode_I\[9\]\.cell0_I
*5070 pad_uio_in_diode_I\[0\]\.cell0_I
*5071 pad_uio_in_diode_I\[1\]\.cell0_I
*5072 pad_uio_in_diode_I\[2\]\.cell0_I
*5073 pad_uio_in_diode_I\[3\]\.cell0_I
*5074 pad_uio_in_diode_I\[4\]\.cell0_I
*5075 pad_uio_in_diode_I\[5\]\.cell0_I
*5076 pad_uio_in_diode_I\[6\]\.cell0_I
*5077 pad_uio_in_diode_I\[7\]\.cell0_I
*5078 sel_cnt_gen\[0\]\.cnt_bit_I\.cell0_I
*5079 sel_cnt_gen\[1\]\.cnt_bit_I\.cell0_I
*5080 sel_cnt_gen\[2\]\.cnt_bit_I\.cell0_I
*5081 sel_cnt_gen\[3\]\.cnt_bit_I\.cell0_I
*5082 sel_cnt_gen\[4\]\.cnt_bit_I\.cell0_I
*5083 sel_cnt_gen\[5\]\.cnt_bit_I\.cell0_I
*5084 sel_cnt_gen\[6\]\.cnt_bit_I\.cell0_I
*5085 sel_cnt_gen\[7\]\.cnt_bit_I\.cell0_I
*5086 sel_cnt_gen\[8\]\.cnt_bit_I\.cell0_I
*5087 sel_cnt_gen\[9\]\.cnt_bit_I\.cell0_I
*5088 side_ena0_buf_I\.genblk1\.cell0_I
*5089 side_ena0_buf_I\.genblk1\.cell1_I
*5090 side_ena0_gen_I\.genblk1\.cell0_I
*5091 side_ena1_buf_I\.genblk1\.cell0_I
*5092 side_ena1_buf_I\.genblk1\.cell1_I
*5093 side_sel_buf_I\.genblk1\.cell0_I
*5094 spine_diode_I\[0\]\.cell0_I
*5095 spine_diode_I\[10\]\.cell0_I
*5096 spine_diode_I\[11\]\.cell0_I
*5097 spine_diode_I\[12\]\.cell0_I
*5098 spine_diode_I\[13\]\.cell0_I
*5099 spine_diode_I\[14\]\.cell0_I
*5100 spine_diode_I\[15\]\.cell0_I
*5101 spine_diode_I\[16\]\.cell0_I
*5102 spine_diode_I\[17\]\.cell0_I
*5103 spine_diode_I\[18\]\.cell0_I
*5104 spine_diode_I\[19\]\.cell0_I
*5105 spine_diode_I\[1\]\.cell0_I
*5106 spine_diode_I\[20\]\.cell0_I
*5107 spine_diode_I\[21\]\.cell0_I
*5108 spine_diode_I\[22\]\.cell0_I
*5109 spine_diode_I\[23\]\.cell0_I
*5110 spine_diode_I\[24\]\.cell0_I
*5111 spine_diode_I\[25\]\.cell0_I
*5112 spine_diode_I\[26\]\.cell0_I
*5113 spine_diode_I\[27\]\.cell0_I
*5114 spine_diode_I\[28\]\.cell0_I
*5115 spine_diode_I\[29\]\.cell0_I
*5116 spine_diode_I\[2\]\.cell0_I
*5117 spine_diode_I\[30\]\.cell0_I
*5118 spine_diode_I\[31\]\.cell0_I
*5119 spine_diode_I\[32\]\.cell0_I
*5120 spine_diode_I\[33\]\.cell0_I
*5121 spine_diode_I\[34\]\.cell0_I
*5122 spine_diode_I\[35\]\.cell0_I
*5123 spine_diode_I\[36\]\.cell0_I
*5124 spine_diode_I\[37\]\.cell0_I
*5125 spine_diode_I\[38\]\.cell0_I
*5126 spine_diode_I\[39\]\.cell0_I
*5127 spine_diode_I\[3\]\.cell0_I
*5128 spine_diode_I\[40\]\.cell0_I
*5129 spine_diode_I\[41\]\.cell0_I
*5130 spine_diode_I\[42\]\.cell0_I
*5131 spine_diode_I\[43\]\.cell0_I
*5132 spine_diode_I\[44\]\.cell0_I
*5133 spine_diode_I\[45\]\.cell0_I
*5134 spine_diode_I\[46\]\.cell0_I
*5135 spine_diode_I\[47\]\.cell0_I
*5136 spine_diode_I\[48\]\.cell0_I
*5137 spine_diode_I\[49\]\.cell0_I
*5138 spine_diode_I\[4\]\.cell0_I
*5139 spine_diode_I\[50\]\.cell0_I
*5140 spine_diode_I\[51\]\.cell0_I
*5141 spine_diode_I\[5\]\.cell0_I
*5142 spine_diode_I\[6\]\.cell0_I
*5143 spine_diode_I\[7\]\.cell0_I
*5144 spine_diode_I\[8\]\.cell0_I
*5145 spine_diode_I\[9\]\.cell0_I
*5146 tie_I\.cell_I
*5147 uio_oe_obuf_I\[0\]\.genblk1\.cell0_I
*5148 uio_oe_obuf_I\[1\]\.genblk1\.cell0_I
*5149 uio_oe_obuf_I\[2\]\.genblk1\.cell0_I
*5150 uio_oe_obuf_I\[3\]\.genblk1\.cell0_I
*5151 uio_oe_obuf_I\[4\]\.genblk1\.cell0_I
*5152 uio_oe_obuf_I\[5\]\.genblk1\.cell0_I
*5153 uio_oe_obuf_I\[6\]\.genblk1\.cell0_I
*5154 uio_oe_obuf_I\[7\]\.genblk1\.cell0_I
*5155 uio_oex_ibuf_I\[0\]\.genblk1\.cell0_I
*5156 uio_oex_ibuf_I\[10\]\.genblk1\.cell0_I
*5157 uio_oex_ibuf_I\[11\]\.genblk1\.cell0_I
*5158 uio_oex_ibuf_I\[12\]\.genblk1\.cell0_I
*5159 uio_oex_ibuf_I\[13\]\.genblk1\.cell0_I
*5160 uio_oex_ibuf_I\[14\]\.genblk1\.cell0_I
*5161 uio_oex_ibuf_I\[15\]\.genblk1\.cell0_I
*5162 uio_oex_ibuf_I\[1\]\.genblk1\.cell0_I
*5163 uio_oex_ibuf_I\[2\]\.genblk1\.cell0_I
*5164 uio_oex_ibuf_I\[3\]\.genblk1\.cell0_I
*5165 uio_oex_ibuf_I\[4\]\.genblk1\.cell0_I
*5166 uio_oex_ibuf_I\[5\]\.genblk1\.cell0_I
*5167 uio_oex_ibuf_I\[6\]\.genblk1\.cell0_I
*5168 uio_oex_ibuf_I\[7\]\.genblk1\.cell0_I
*5169 uio_oex_ibuf_I\[8\]\.genblk1\.cell0_I
*5170 uio_oex_ibuf_I\[9\]\.genblk1\.cell0_I
*5171 uio_oex_mux_I\[0\]\.cell0_I
*5172 uio_oex_mux_I\[1\]\.cell0_I
*5173 uio_oex_mux_I\[2\]\.cell0_I
*5174 uio_oex_mux_I\[3\]\.cell0_I
*5175 uio_oex_mux_I\[4\]\.cell0_I
*5176 uio_oex_mux_I\[5\]\.cell0_I
*5177 uio_oex_mux_I\[6\]\.cell0_I
*5178 uio_oex_mux_I\[7\]\.cell0_I
*5179 uio_out_ibuf_I\[0\]\.genblk1\.cell0_I
*5180 uio_out_ibuf_I\[10\]\.genblk1\.cell0_I
*5181 uio_out_ibuf_I\[11\]\.genblk1\.cell0_I
*5182 uio_out_ibuf_I\[12\]\.genblk1\.cell0_I
*5183 uio_out_ibuf_I\[13\]\.genblk1\.cell0_I
*5184 uio_out_ibuf_I\[14\]\.genblk1\.cell0_I
*5185 uio_out_ibuf_I\[15\]\.genblk1\.cell0_I
*5186 uio_out_ibuf_I\[1\]\.genblk1\.cell0_I
*5187 uio_out_ibuf_I\[2\]\.genblk1\.cell0_I
*5188 uio_out_ibuf_I\[3\]\.genblk1\.cell0_I
*5189 uio_out_ibuf_I\[4\]\.genblk1\.cell0_I
*5190 uio_out_ibuf_I\[5\]\.genblk1\.cell0_I
*5191 uio_out_ibuf_I\[6\]\.genblk1\.cell0_I
*5192 uio_out_ibuf_I\[7\]\.genblk1\.cell0_I
*5193 uio_out_ibuf_I\[8\]\.genblk1\.cell0_I
*5194 uio_out_ibuf_I\[9\]\.genblk1\.cell0_I
*5195 uio_out_mux_I\[0\]\.cell0_I
*5196 uio_out_mux_I\[1\]\.cell0_I
*5197 uio_out_mux_I\[2\]\.cell0_I
*5198 uio_out_mux_I\[3\]\.cell0_I
*5199 uio_out_mux_I\[4\]\.cell0_I
*5200 uio_out_mux_I\[5\]\.cell0_I
*5201 uio_out_mux_I\[6\]\.cell0_I
*5202 uio_out_mux_I\[7\]\.cell0_I
*5203 uio_out_obuf_I\[0\]\.genblk1\.cell0_I
*5204 uio_out_obuf_I\[1\]\.genblk1\.cell0_I
*5205 uio_out_obuf_I\[2\]\.genblk1\.cell0_I
*5206 uio_out_obuf_I\[3\]\.genblk1\.cell0_I
*5207 uio_out_obuf_I\[4\]\.genblk1\.cell0_I
*5208 uio_out_obuf_I\[5\]\.genblk1\.cell0_I
*5209 uio_out_obuf_I\[6\]\.genblk1\.cell0_I
*5210 uio_out_obuf_I\[7\]\.genblk1\.cell0_I
*5211 uo_out_ibuf_I\[0\]\.genblk1\.cell0_I
*5212 uo_out_ibuf_I\[10\]\.genblk1\.cell0_I
*5213 uo_out_ibuf_I\[11\]\.genblk1\.cell0_I
*5214 uo_out_ibuf_I\[12\]\.genblk1\.cell0_I
*5215 uo_out_ibuf_I\[13\]\.genblk1\.cell0_I
*5216 uo_out_ibuf_I\[14\]\.genblk1\.cell0_I
*5217 uo_out_ibuf_I\[15\]\.genblk1\.cell0_I
*5218 uo_out_ibuf_I\[1\]\.genblk1\.cell0_I
*5219 uo_out_ibuf_I\[2\]\.genblk1\.cell0_I
*5220 uo_out_ibuf_I\[3\]\.genblk1\.cell0_I
*5221 uo_out_ibuf_I\[4\]\.genblk1\.cell0_I
*5222 uo_out_ibuf_I\[5\]\.genblk1\.cell0_I
*5223 uo_out_ibuf_I\[6\]\.genblk1\.cell0_I
*5224 uo_out_ibuf_I\[7\]\.genblk1\.cell0_I
*5225 uo_out_ibuf_I\[8\]\.genblk1\.cell0_I
*5226 uo_out_ibuf_I\[9\]\.genblk1\.cell0_I
*5227 uo_out_mux_I\[0\]\.cell0_I
*5228 uo_out_mux_I\[1\]\.cell0_I
*5229 uo_out_mux_I\[2\]\.cell0_I
*5230 uo_out_mux_I\[3\]\.cell0_I
*5231 uo_out_mux_I\[4\]\.cell0_I
*5232 uo_out_mux_I\[5\]\.cell0_I
*5233 uo_out_mux_I\[6\]\.cell0_I
*5234 uo_out_mux_I\[7\]\.cell0_I
*5235 uo_out_obuf_I\[0\]\.genblk1\.cell0_I
*5236 uo_out_obuf_I\[1\]\.genblk1\.cell0_I
*5237 uo_out_obuf_I\[2\]\.genblk1\.cell0_I
*5238 uo_out_obuf_I\[3\]\.genblk1\.cell0_I
*5239 uo_out_obuf_I\[4\]\.genblk1\.cell0_I
*5240 uo_out_obuf_I\[5\]\.genblk1\.cell0_I
*5241 uo_out_obuf_I\[6\]\.genblk1\.cell0_I
*5242 uo_out_obuf_I\[7\]\.genblk1\.cell0_I

*PORTS
ctrl_ena I
ctrl_sel_inc I
ctrl_sel_rst_n I
k_one O
k_zero O
pad_ui_in[0] I
pad_ui_in[1] I
pad_ui_in[2] I
pad_ui_in[3] I
pad_ui_in[4] I
pad_ui_in[5] I
pad_ui_in[6] I
pad_ui_in[7] I
pad_ui_in[8] I
pad_ui_in[9] I
pad_uio_in[0] I
pad_uio_in[1] I
pad_uio_in[2] I
pad_uio_in[3] I
pad_uio_in[4] I
pad_uio_in[5] I
pad_uio_in[6] I
pad_uio_in[7] I
pad_uio_oex[0] O
pad_uio_oex[1] O
pad_uio_oex[2] O
pad_uio_oex[3] O
pad_uio_oex[4] O
pad_uio_oex[5] O
pad_uio_oex[6] O
pad_uio_oex[7] O
pad_uio_out[0] O
pad_uio_out[1] O
pad_uio_out[2] O
pad_uio_out[3] O
pad_uio_out[4] O
pad_uio_out[5] O
pad_uio_out[6] O
pad_uio_out[7] O
pad_uo_out[0] O
pad_uo_out[1] O
pad_uo_out[2] O
pad_uo_out[3] O
pad_uo_out[4] O
pad_uo_out[5] O
pad_uo_out[6] O
pad_uo_out[7] O
spine_bot_iw[0] O
spine_bot_iw[10] O
spine_bot_iw[11] O
spine_bot_iw[12] O
spine_bot_iw[13] O
spine_bot_iw[14] O
spine_bot_iw[15] O
spine_bot_iw[16] O
spine_bot_iw[17] O
spine_bot_iw[18] O
spine_bot_iw[19] O
spine_bot_iw[1] O
spine_bot_iw[20] O
spine_bot_iw[21] O
spine_bot_iw[22] O
spine_bot_iw[23] O
spine_bot_iw[24] O
spine_bot_iw[25] O
spine_bot_iw[26] O
spine_bot_iw[27] O
spine_bot_iw[28] O
spine_bot_iw[29] O
spine_bot_iw[2] O
spine_bot_iw[3] O
spine_bot_iw[4] O
spine_bot_iw[5] O
spine_bot_iw[6] O
spine_bot_iw[7] O
spine_bot_iw[8] O
spine_bot_iw[9] O
spine_bot_ow[0] I
spine_bot_ow[10] I
spine_bot_ow[11] I
spine_bot_ow[12] I
spine_bot_ow[13] I
spine_bot_ow[14] I
spine_bot_ow[15] I
spine_bot_ow[16] I
spine_bot_ow[17] I
spine_bot_ow[18] I
spine_bot_ow[19] I
spine_bot_ow[1] I
spine_bot_ow[20] I
spine_bot_ow[21] I
spine_bot_ow[22] I
spine_bot_ow[23] I
spine_bot_ow[24] I
spine_bot_ow[25] I
spine_bot_ow[2] I
spine_bot_ow[3] I
spine_bot_ow[4] I
spine_bot_ow[5] I
spine_bot_ow[6] I
spine_bot_ow[7] I
spine_bot_ow[8] I
spine_bot_ow[9] I
spine_top_iw[0] O
spine_top_iw[10] O
spine_top_iw[11] O
spine_top_iw[12] O
spine_top_iw[13] O
spine_top_iw[14] O
spine_top_iw[15] O
spine_top_iw[16] O
spine_top_iw[17] O
spine_top_iw[18] O
spine_top_iw[19] O
spine_top_iw[1] O
spine_top_iw[20] O
spine_top_iw[21] O
spine_top_iw[22] O
spine_top_iw[23] O
spine_top_iw[24] O
spine_top_iw[25] O
spine_top_iw[26] O
spine_top_iw[27] O
spine_top_iw[28] O
spine_top_iw[29] O
spine_top_iw[2] O
spine_top_iw[3] O
spine_top_iw[4] O
spine_top_iw[5] O
spine_top_iw[6] O
spine_top_iw[7] O
spine_top_iw[8] O
spine_top_iw[9] O
spine_top_ow[0] I
spine_top_ow[10] I
spine_top_ow[11] I
spine_top_ow[12] I
spine_top_ow[13] I
spine_top_ow[14] I
spine_top_ow[15] I
spine_top_ow[16] I
spine_top_ow[17] I
spine_top_ow[18] I
spine_top_ow[19] I
spine_top_ow[1] I
spine_top_ow[20] I
spine_top_ow[21] I
spine_top_ow[22] I
spine_top_ow[23] I
spine_top_ow[24] I
spine_top_ow[25] I
spine_top_ow[2] I
spine_top_ow[3] I
spine_top_ow[4] I
spine_top_ow[5] I
spine_top_ow[6] I
spine_top_ow[7] I
spine_top_ow[8] I
spine_top_ow[9] I

*D_NET *3 0.00858717
*CONN
*P ctrl_ena I
*I *4909:A I *D sky130_fd_sc_hd__buf_2
*I *4906:DIODE I *D sky130_fd_sc_hd__diode_2
*CAP
1 ctrl_ena 0.000614283
2 *4909:A 0.00306717
3 *4906:DIODE 0
4 *3:24 0.00346877
5 *3:13 0.00101588
6 *3:13 k_one 9.26907e-06
7 *3:13 pad_uo_out[7] 0.000301017
8 *3:13 *4908:DIODE 8.19378e-05
9 *3:13 *4:13 2.88432e-05
10 *3:13 *5:45 0
11 *3:24 *5:45 0
12 *3:24 *25:13 0
13 *3:24 *25:21 0
*RES
1 ctrl_ena *3:13 6.22623 
2 *3:13 *4906:DIODE 3.6 
3 *3:13 *3:24 8.735 
4 *3:24 *4909:A 45.175 
*END

*D_NET *4 0.00864576
*CONN
*P ctrl_sel_inc I
*I *4910:A I *D sky130_fd_sc_hd__buf_2
*I *4907:DIODE I *D sky130_fd_sc_hd__diode_2
*CAP
1 ctrl_sel_inc 0.00363728
2 *4910:A 0.000332025
3 *4907:DIODE 0
4 *4:13 0.00396931
5 *4910:A spine_bot_ow[1] 0
6 *4910:A *4911:A 0.000200201
7 *4910:A *4999:A 0.000200201
8 *4910:A *5094:DIODE 5.53249e-06
9 *4910:A *91:22 0
10 *4:13 k_one 0
11 *4:13 k_zero 8.1472e-05
12 *4:13 spine_bot_ow[15] 0
13 *4:13 spine_bot_ow[16] 0
14 *4:13 spine_bot_ow[22] 0
15 *4:13 spine_bot_ow[23] 0
16 *4:13 spine_bot_ow[4] 0
17 *4:13 spine_bot_ow[6] 0
18 *4:13 spine_bot_ow[8] 0
19 *4:13 *4908:DIODE 6.24228e-05
20 *4:13 *5094:DIODE 0.000113895
21 *4:13 *5111:DIODE 1.45731e-05
22 *3:13 *4:13 2.88432e-05
*RES
1 ctrl_sel_inc *4:13 13.1701 
2 *4:13 *4907:DIODE 3.6 
3 *4:13 *4910:A 10.38 
*END

*D_NET *5 0.0116269
*CONN
*P ctrl_sel_rst_n I
*I *4911:A I *D sky130_fd_sc_hd__buf_2
*I *4908:DIODE I *D sky130_fd_sc_hd__diode_2
*CAP
1 ctrl_sel_rst_n 0.000458151
2 *4911:A 0.00103794
3 *4908:DIODE 0.00209017
4 *5:45 0.00266997
5 *4908:DIODE k_one 0.000172613
6 *4908:DIODE k_zero 4.78564e-05
7 *4911:A *4915:A 0.000292282
8 *4911:A *4933:TE_B 0.000419392
9 *4911:A *4935:A 0.000238919
10 *4911:A *4999:A 0.00116867
11 *4911:A *4999:B 4.99619e-05
12 *4911:A *5078:CLK 0.000648728
13 *4911:A *166:219 6.6406e-05
14 *4911:A *167:199 4.82863e-05
15 *5:45 *4915:A 1.37328e-05
16 *5:45 *4921:A 3.7712e-05
17 *5:45 *4923:A 6.24773e-06
18 *5:45 *4923:TE_B 0.000311288
19 *5:45 *4925:A 4.82919e-05
20 *5:45 *4925:TE_B 0.000123731
21 *5:45 *4999:A 0.000235146
22 *5:45 *25:21 0.00102277
23 *5:45 *166:88 7.40446e-05
24 *4910:A *4911:A 0.000200201
25 *3:13 *4908:DIODE 8.19378e-05
26 *3:13 *5:45 0
27 *3:24 *5:45 0
28 *4:13 *4908:DIODE 6.24228e-05
*RES
1 ctrl_sel_rst_n *4908:DIODE 8.49823 
2 *4908:DIODE *5:45 36.455 
3 *5:45 *4911:A 30.58 
*END

*D_NET *6 0.00118252
*CONN
*P k_one O
*I *5146:HI O *D sky130_fd_sc_hd__conb_1
*CAP
1 k_one 0.000474346
2 *5146:HI 0.000474346
3 k_one k_zero 5.19453e-05
4 k_one pad_uo_out[7] 0
5 *4908:DIODE k_one 0.000172613
6 *3:13 k_one 9.26907e-06
7 *4:13 k_one 0
*RES
1 *5146:HI k_one 5.81797 
*END

*D_NET *7 0.000939392
*CONN
*P k_zero O
*I *5146:LO O *D sky130_fd_sc_hd__conb_1
*CAP
1 k_zero 0.000379059
2 *5146:LO 0.000379059
3 k_one k_zero 5.19453e-05
4 *4908:DIODE k_zero 4.78564e-05
5 *4:13 k_zero 8.1472e-05
*RES
1 *5146:LO k_zero 9.4939 
*END

*D_NET *8 0.0234341
*CONN
*P pad_ui_in[0] I
*I *5013:A I *D sky130_fd_sc_hd__and2_2
*I *5060:DIODE I *D sky130_fd_sc_hd__diode_2
*I *4965:A I *D sky130_fd_sc_hd__and2_2
*CAP
1 pad_ui_in[0] 0.000386162
2 *5013:A 0.0015513
3 *5060:DIODE 0
4 *4965:A 0.00111878
5 *8:15 0.00375316
6 *8:13 0.00457184
7 *4965:A *4975:A 0.00194185
8 *4965:A *4977:A 0.00209259
9 *4965:A *4979:A 0.000275169
10 *5013:A *5041:A 0.00102881
11 *5013:A *5204:A 0.000764125
12 *8:13 *5031:A 2.91905e-05
13 *8:13 *5033:A 0
14 *8:13 *9:11 0.000393626
15 *8:13 *17:9 0.000520609
16 *8:13 *17:30 1.79536e-05
17 *8:13 *18:11 1.09801e-05
18 *8:15 *4967:A 0
19 *8:15 *4983:A 0.000286266
20 *8:15 *5015:A 0
21 *8:15 *5033:A 0
22 *8:15 *9:13 0
23 *8:15 *17:30 0.00469172
*RES
1 pad_ui_in[0] *8:13 3.02863 
2 *8:13 *8:15 63.6 
3 *8:15 *4965:A 34.725 
4 *8:15 *5060:DIODE 3.6 
5 *8:13 *5013:A 32.7 
*END

*D_NET *9 0.0217646
*CONN
*P pad_ui_in[1] I
*I *5015:A I *D sky130_fd_sc_hd__and2_2
*I *5061:DIODE I *D sky130_fd_sc_hd__diode_2
*I *4967:A I *D sky130_fd_sc_hd__and2_2
*CAP
1 pad_ui_in[1] 0.000510342
2 *5015:A 0.00152303
3 *5061:DIODE 0
4 *4967:A 0.00181154
5 *9:13 0.00493488
6 *9:11 0.00515671
7 *4967:A *4968:A 5.83121e-06
8 *4967:A *4985:A 0
9 *4967:A *4991:A 0.0017254
10 *4967:A *19:46 0.000460447
11 *4967:A *173:123 0.000347017
12 *5015:A spine_top_iw[10] 4.41872e-05
13 *5015:A spine_top_iw[9] 0
14 *5015:A *5033:A 0
15 *5015:A *5037:A 0.0020416
16 *5015:A *5148:A 0.000109836
17 *5015:A *5205:A 0.00148371
18 *5015:A *5206:A 0.000131791
19 *5015:A *18:13 0
20 *5015:A *279:16 0.000276747
21 *9:11 *18:11 0.000807939
22 *9:11 *19:9 0
23 *9:13 *4985:A 0
24 *9:13 *18:13 0
25 *8:13 *9:11 0.000393626
26 *8:15 *4967:A 0
27 *8:15 *5015:A 0
28 *8:15 *9:13 0
*RES
1 pad_ui_in[1] *9:11 3.3712 
2 *9:11 *9:13 52.5075 
3 *9:13 *4967:A 40.365 
4 *9:13 *5061:DIODE 3.6 
5 *9:11 *5015:A 43.5325 
*END

*D_NET *10 0.0165608
*CONN
*P pad_ui_in[2] I
*I *5017:A I *D sky130_fd_sc_hd__and2_2
*I *5062:DIODE I *D sky130_fd_sc_hd__diode_2
*I *4969:A I *D sky130_fd_sc_hd__and2_2
*CAP
1 pad_ui_in[2] 0.000369038
2 *5017:A 0.00160079
3 *5062:DIODE 0
4 *4969:A 0.00124871
5 *10:36 0.00295957
6 *10:34 0.00228026
7 *10:17 0.00253922
8 *4969:A *4964:A 0.000652269
9 *4969:A *4969:B 0.000388555
10 *4969:A *4970:A 5.2397e-05
11 *5017:A *5018:A 4.9253e-06
12 *5017:A *21:13 0.000298442
13 *10:17 *11:11 0.00013942
14 *10:34 *4971:A 0.000145991
15 *10:34 *4991:A 0.00013789
16 *10:34 *5063:DIODE 0.000574463
17 *10:34 *5073:DIODE 2.65814e-06
18 *10:34 *21:13 5.39961e-05
19 *10:34 *21:17 2.50049e-05
20 *10:36 *21:13 0.00308725
*RES
1 pad_ui_in[2] *10:17 6.84903 
2 *10:17 *4969:A 23.785 
3 *10:17 *10:34 25.515 
4 *10:34 *10:36 35.04 
5 *10:36 *5062:DIODE 3.6 
6 *10:36 *5017:A 28.17 
*END

*D_NET *11 0.0176847
*CONN
*P pad_ui_in[3] I
*I *5019:A I *D sky130_fd_sc_hd__and2_2
*I *5063:DIODE I *D sky130_fd_sc_hd__diode_2
*I *4971:A I *D sky130_fd_sc_hd__and2_2
*CAP
1 pad_ui_in[3] 0.000604422
2 *5019:A 0.00212567
3 *5063:DIODE 0.00413747
4 *4971:A 0.00163667
5 *11:11 0.0042529
6 *4971:A *4972:A 0.000161893
7 *4971:A *4973:A 0.000643678
8 *4971:A *4981:A 0.000241421
9 *4971:A *5003:A 4.89295e-05
10 *4971:A *5078:CLK 2.937e-05
11 *4971:A *5078:D 7.01753e-05
12 *4971:A *5078:RESET_B 4.3767e-05
13 *4971:A *12:28 0
14 *4971:A *173:166 3.70488e-05
15 *4971:A *192:8 0.000498653
16 *4971:A *224:8 0.000222033
17 *5019:A *5056:A 0
18 *5063:DIODE *12:28 0
19 *5063:DIODE *12:30 0
20 *5063:DIODE *21:13 0.0012408
21 *11:11 *4979:A 5.85559e-05
22 *11:11 *12:11 0.000771332
23 *10:17 *11:11 0.00013942
24 *10:34 *4971:A 0.000145991
25 *10:34 *5063:DIODE 0.000574463
*RES
1 pad_ui_in[3] *11:11 3.28507 
2 *11:11 *4971:A 34.1625 
3 *11:11 *5063:DIODE 49.2225 
4 *5063:DIODE *5019:A 36.165 
*END

*D_NET *12 0.0221878
*CONN
*P pad_ui_in[4] I
*I *5021:A I *D sky130_fd_sc_hd__and2_2
*I *5064:DIODE I *D sky130_fd_sc_hd__diode_2
*I *4973:A I *D sky130_fd_sc_hd__and2_2
*CAP
1 pad_ui_in[4] 0.000392387
2 *5021:A 0.0013595
3 *5064:DIODE 0
4 *4973:A 0.00244813
5 *12:30 0.00183372
6 *12:28 0.00226035
7 *12:11 0.00462665
8 *4973:A *4981:A 0.000191982
9 *4973:A *5003:A 1.77665e-05
10 *4973:A *5078:CLK 2.49909e-05
11 *4973:A *5078:D 9.55766e-05
12 *4973:A *13:13 0
13 *4973:A *173:166 0.000170402
14 *4973:A *224:8 0.000332409
15 *5021:A *16:51 0.0032238
16 *5021:A *20:34 0.000293712
17 *5021:A *21:13 0
18 *12:11 *4979:A 8.35556e-05
19 *12:11 *13:11 0.000747591
20 *12:11 *14:11 0.000126081
21 *12:28 *4989:A 0.000115582
22 *12:28 *13:13 0
23 *12:28 *20:34 0.00121648
24 *12:28 *20:38 0.000126452
25 *12:30 *20:34 0.00108564
26 *12:30 *21:13 0
27 *4971:A *4973:A 0.000643678
28 *4971:A *12:28 0
29 *5063:DIODE *12:28 0
30 *5063:DIODE *12:30 0
31 *11:11 *12:11 0.000771332
*RES
1 pad_ui_in[4] *12:11 3.19893 
2 *12:11 *4973:A 35.4075 
3 *12:11 *12:28 37.695 
4 *12:28 *12:30 12.3075 
5 *12:30 *5064:DIODE 3.6 
6 *12:30 *5021:A 36.45 
*END

*D_NET *13 0.0246751
*CONN
*P pad_ui_in[5] I
*I *4975:A I *D sky130_fd_sc_hd__and2_2
*I *5023:A I *D sky130_fd_sc_hd__and2_2
*I *5065:DIODE I *D sky130_fd_sc_hd__diode_2
*CAP
1 pad_ui_in[5] 0.000380942
2 *4975:A 0.00145849
3 *5023:A 0.00240919
4 *5065:DIODE 0
5 *13:13 0.00477971
6 *13:11 0.00420995
7 *4975:A *4965:B 0.000349592
8 *4975:A *4977:A 0.000772394
9 *4975:A *4979:A 0.000300209
10 *4975:A *5078:CLK 0.000621178
11 *4975:A *173:191 0
12 *5023:A *5020:A 0
13 *5023:A *5021:B 3.74161e-05
14 *5023:A *14:26 0
15 *5023:A *16:51 0.00343381
16 *5023:A *20:34 0.000100301
17 *5023:A *203:116 2.86623e-05
18 *5023:A *203:136 0.000163199
19 *13:11 *4979:A 0.00031843
20 *13:11 *4981:A 3.72561e-05
21 *13:11 *14:11 0.000494627
22 *13:11 *15:11 0.000118636
23 *13:13 *4989:A 4.26188e-05
24 *13:13 *14:26 0
25 *13:13 *20:34 0.00187312
26 *13:13 *20:38 5.59134e-05
27 *4965:A *4975:A 0.00194185
28 *4973:A *13:13 0
29 *12:11 *13:11 0.000747591
30 *12:28 *13:13 0
*RES
1 pad_ui_in[5] *13:11 3.1128 
2 *13:11 *13:13 50.7225 
3 *13:13 *5065:DIODE 3.6 
4 *13:13 *5023:A 43.45 
5 *13:11 *4975:A 42.37 
*END

*D_NET *14 0.0230184
*CONN
*P pad_ui_in[6] I
*I *5025:A I *D sky130_fd_sc_hd__and2_2
*I *5066:DIODE I *D sky130_fd_sc_hd__diode_2
*I *4977:A I *D sky130_fd_sc_hd__and2_2
*CAP
1 pad_ui_in[6] 0.000436064
2 *5025:A 0.002023
3 *5066:DIODE 0
4 *4977:A 0.00196513
5 *14:26 0.00521214
6 *14:11 0.00559033
7 *4977:A *4965:B 0.000349592
8 *4977:A *4979:A 0.000466569
9 *4977:A *4979:B 1.67131e-05
10 *4977:A *5078:CLK 9.56413e-05
11 *5025:A *5025:B 9.09197e-05
12 *5025:A *5027:A 0
13 *5025:A *5150:A 0.00250392
14 *5025:A *15:34 0
15 *5025:A *19:38 0
16 *5025:A *20:34 0
17 *14:11 *15:11 0.000782651
18 *14:26 *15:34 0
19 *14:26 *20:34 0
20 *4965:A *4977:A 0.00209259
21 *4975:A *4977:A 0.000772394
22 *5023:A *14:26 0
23 *12:11 *14:11 0.000126081
24 *13:11 *14:11 0.000494627
25 *13:13 *14:26 0
*RES
1 pad_ui_in[6] *14:11 3.28507 
2 *14:11 *4977:A 40.7775 
3 *14:11 *14:26 53.0175 
4 *14:26 *5066:DIODE 3.6 
5 *14:26 *5025:A 42.795 
*END

*D_NET *15 0.0253862
*CONN
*P pad_ui_in[7] I
*I *5027:A I *D sky130_fd_sc_hd__and2_2
*I *5067:DIODE I *D sky130_fd_sc_hd__diode_2
*I *4979:A I *D sky130_fd_sc_hd__and2_2
*CAP
1 pad_ui_in[7] 0.00034698
2 *5027:A 0.00275211
3 *5067:DIODE 0
4 *4979:A 0.00271983
5 *15:34 0.00503731
6 *15:11 0.00535202
7 *4979:A spine_bot_iw[10] 4.12303e-05
8 *4979:A spine_bot_iw[20] 1.88602e-05
9 *4979:A spine_bot_iw[3] 2.20023e-05
10 *4979:A spine_bot_iw[9] 4.21127e-05
11 *4979:A *4981:A 0.00154028
12 *4979:A *5078:CLK 0.000127531
13 *5027:A spine_top_iw[16] 0.000120655
14 *5027:A *19:38 0.000141599
15 *15:11 *4981:A 7.59892e-06
16 *15:11 *16:11 0.000756139
17 *15:34 *16:30 0
18 *15:34 *19:38 0.00353157
19 *15:34 *19:46 0.000424553
20 *4965:A *4979:A 0.000275169
21 *4975:A *4979:A 0.000300209
22 *4977:A *4979:A 0.000466569
23 *5025:A *5027:A 0
24 *5025:A *15:34 0
25 *11:11 *4979:A 5.85559e-05
26 *12:11 *4979:A 8.35556e-05
27 *13:11 *4979:A 0.00031843
28 *13:11 *15:11 0.000118636
29 *14:11 *15:11 0.000782651
30 *14:26 *15:34 0
*RES
1 pad_ui_in[7] *15:11 3.19893 
2 *15:11 *4979:A 12.9444 
3 *15:11 *15:34 53.5275 
4 *15:34 *5067:DIODE 3.6 
5 *15:34 *5027:A 44.325 
*END

*D_NET *16 0.0283312
*CONN
*P pad_ui_in[8] I
*I *5029:A I *D sky130_fd_sc_hd__and2_2
*I *5068:DIODE I *D sky130_fd_sc_hd__diode_2
*I *4981:A I *D sky130_fd_sc_hd__and2_2
*CAP
1 pad_ui_in[8] 0.000606018
2 *5029:A 0
3 *5068:DIODE 0
4 *4981:A 0.00370898
5 *16:51 0.00163727
6 *16:30 0.00395865
7 *16:11 0.00663639
8 *4981:A spine_bot_iw[11] 0
9 *4981:A spine_bot_iw[12] 8.1472e-05
10 *4981:A spine_bot_iw[13] 0
11 *4981:A spine_bot_iw[15] 0.000122749
12 *4981:A spine_bot_iw[17] 7.27954e-05
13 *4981:A spine_bot_iw[18] 1.00909e-05
14 *4981:A spine_bot_iw[20] 4.90855e-05
15 *4981:A spine_bot_iw[2] 4.89679e-05
16 *4981:A spine_bot_iw[4] 0
17 *4981:A spine_bot_iw[6] 1.33934e-05
18 *4981:A spine_bot_iw[7] 0
19 *4981:A spine_bot_iw[8] 4.57523e-06
20 *4981:A *4980:A 1.00941e-05
21 *16:30 *4985:A 0
22 *16:30 *18:13 0
23 *16:30 *19:38 0.00128651
24 *16:30 *19:46 0.000166005
25 *16:51 *5029:B 0.00012657
26 *16:51 *18:13 0
27 *16:51 *19:38 0.000158944
28 *16:51 *203:136 2.7441e-05
29 *16:51 *203:138 0.000172892
30 *4971:A *4981:A 0.000241421
31 *4973:A *4981:A 0.000191982
32 *4979:A *4981:A 0.00154028
33 *5021:A *16:51 0.0032238
34 *5023:A *16:51 0.00343381
35 *13:11 *4981:A 3.72561e-05
36 *15:11 *4981:A 7.59892e-06
37 *15:11 *16:11 0.000756139
38 *15:34 *16:30 0
*RES
1 pad_ui_in[8] *16:11 3.1128 
2 *16:11 *4981:A 13.7888 
3 *16:11 *16:30 48.6825 
4 *16:30 *5068:DIODE 3.6 
5 *16:30 *16:51 49.82 
6 *16:51 *5029:A 1.6 
*END

*D_NET *17 0.0283292
*CONN
*P pad_ui_in[9] I
*I *5069:DIODE I *D sky130_fd_sc_hd__diode_2
*I *4983:A I *D sky130_fd_sc_hd__and2_2
*I *5031:A I *D sky130_fd_sc_hd__and2_2
*CAP
1 pad_ui_in[9] 0.00051678
2 *5069:DIODE 0
3 *4983:A 0.00227694
4 *5031:A 0.00208905
5 *17:30 0.00442526
6 *17:28 0.00214832
7 *17:9 0.00260583
8 *4983:A *4985:A 0.00458321
9 *5031:A pad_uio_oex[0] 0
10 *5031:A pad_uio_oex[1] 1.40792e-05
11 *5031:A pad_uio_oex[2] 0
12 *5031:A pad_uio_out[0] 0
13 *5031:A pad_uio_out[1] 4.38825e-05
14 *5031:A pad_uio_out[2] 0
15 *5031:A pad_uio_out[3] 0
16 *5031:A spine_top_iw[0] 0
17 *5031:A spine_top_iw[10] 4.7371e-05
18 *5031:A spine_top_iw[11] 0.000218408
19 *5031:A spine_top_iw[1] 0
20 *5031:A spine_top_iw[2] 2.25816e-05
21 *5031:A spine_top_iw[3] 2.38558e-05
22 *5031:A spine_top_iw[4] 4.32417e-05
23 *5031:A spine_top_iw[5] 2.38558e-05
24 *5031:A *5033:A 0.00370078
25 *5031:A *18:11 0
26 *17:30 *5033:A 0
27 *8:13 *5031:A 2.91905e-05
28 *8:13 *17:9 0.000520609
29 *8:13 *17:30 1.79536e-05
30 *8:15 *4983:A 0.000286266
31 *8:15 *17:30 0.00469172
*RES
1 pad_ui_in[9] *17:9 2.29867 
2 *17:9 *5031:A 11.0585 
3 *17:9 *17:28 0.5 
4 *17:28 *17:30 54.5475 
5 *17:30 *4983:A 15.5629 
6 *17:30 *5069:DIODE 3.6 
*END

*D_NET *18 0.030799
*CONN
*P pad_uio_in[0] I
*I *5033:A I *D sky130_fd_sc_hd__and2_2
*I *5070:DIODE I *D sky130_fd_sc_hd__diode_2
*I *4985:A I *D sky130_fd_sc_hd__and2_2
*CAP
1 pad_uio_in[0] 0.000673759
2 *5033:A 0.00248109
3 *5070:DIODE 0
4 *4985:A 0.00304647
5 *18:13 0.00608789
6 *18:11 0.00619627
7 *4985:A spine_bot_iw[5] 0
8 *4985:A *4987:A 0
9 *4985:A *4989:A 0.000399577
10 *4985:A *4991:A 0.000269568
11 *4985:A *4993:A 0.000318804
12 *4985:A *19:46 0.000361862
13 *4985:A *173:112 0.000106897
14 *5033:A spine_top_iw[17] 8.66976e-06
15 *5033:A spine_top_iw[20] 0
16 *5033:A spine_top_iw[21] 0
17 *5033:A *5147:A 0.000130058
18 *5033:A *5148:A 0.00134768
19 *5033:A *19:9 0
20 *5033:A *22:11 0.000195769
21 *18:11 pad_uio_oex[0] 1.80802e-05
22 *18:11 pad_uio_out[0] 5.36723e-05
23 *18:11 *19:9 0
24 *4967:A *4985:A 0
25 *4983:A *4985:A 0.00458321
26 *5015:A *5033:A 0
27 *5015:A *18:13 0
28 *5031:A *5033:A 0.00370078
29 *5031:A *18:11 0
30 *8:13 *5033:A 0
31 *8:13 *18:11 1.09801e-05
32 *8:15 *5033:A 0
33 *9:11 *18:11 0.000807939
34 *9:13 *4985:A 0
35 *9:13 *18:13 0
36 *16:30 *4985:A 0
37 *16:30 *18:13 0
38 *16:51 *18:13 0
39 *17:30 *5033:A 0
*RES
1 pad_uio_in[0] *18:11 3.28507 
2 *18:11 *18:13 50.9775 
3 *18:13 *4985:A 15.8398 
4 *18:13 *5070:DIODE 3.6 
5 *18:11 *5033:A 15.0148 
*END

*D_NET *19 0.0321333
*CONN
*P pad_uio_in[1] I
*I *5071:DIODE I *D sky130_fd_sc_hd__diode_2
*I *4987:A I *D sky130_fd_sc_hd__and2_2
*I *5035:A I *D sky130_fd_sc_hd__and2_2
*CAP
1 pad_uio_in[1] 0.000839736
2 *5071:DIODE 0
3 *4987:A 6.98716e-05
4 *5035:A 0.00305974
5 *19:46 0.00313592
6 *19:38 0.0045854
7 *19:36 0.00151936
8 *19:9 0.00389947
9 *4987:A *4986:A 2.67022e-05
10 *4987:A *4988:A 3.86529e-05
11 *5035:A spine_top_iw[14] 0.000225678
12 *5035:A spine_top_iw[15] 3.81195e-05
13 *5035:A spine_top_iw[16] 7.86939e-05
14 *5035:A spine_top_iw[18] 0.000226427
15 *5035:A spine_top_iw[19] 4.01953e-05
16 *5035:A spine_top_iw[6] 0.000200878
17 *5035:A *5037:A 0.000181618
18 *5035:A *5147:A 0.00271788
19 *5035:A *20:9 0.000338927
20 *5035:A *21:11 0.000239602
21 *5035:A *203:86 5.16418e-05
22 *19:9 pad_uio_oex[0] 0.000143874
23 *19:9 pad_uio_oex[1] 4.67438e-06
24 *19:9 pad_uio_out[1] 0.000197976
25 *19:9 *5147:A 5.91244e-05
26 *19:9 *20:9 0
27 *19:46 *4991:A 0.00368166
28 *4967:A *19:46 0.000460447
29 *4985:A *4987:A 0
30 *4985:A *19:46 0.000361862
31 *5025:A *19:38 0
32 *5027:A *19:38 0.000141599
33 *5033:A *19:9 0
34 *9:11 *19:9 0
35 *15:34 *19:38 0.00353157
36 *15:34 *19:46 0.000424553
37 *16:30 *19:38 0.00128651
38 *16:30 *19:46 0.000166005
39 *16:51 *19:38 0.000158944
40 *18:11 *19:9 0
*RES
1 pad_uio_in[1] *19:9 2.81293 
2 *19:9 *5035:A 14.0493 
3 *19:9 *19:36 0.5 
4 *19:36 *19:38 50.4675 
5 *19:38 *19:46 49.765 
6 *19:46 *4987:A 4.98 
7 *19:38 *5071:DIODE 3.6 
*END

*D_NET *20 0.0275912
*CONN
*P pad_uio_in[2] I
*I *5072:DIODE I *D sky130_fd_sc_hd__diode_2
*I *4989:A I *D sky130_fd_sc_hd__and2_2
*I *5037:A I *D sky130_fd_sc_hd__and2_2
*CAP
1 pad_uio_in[2] 0.000624768
2 *5072:DIODE 0
3 *4989:A 0.00206892
4 *5037:A 0.00281888
5 *20:38 0.00211905
6 *20:34 0.00171452
7 *20:32 0.00166439
8 *20:9 0.00344365
9 *4989:A *4993:A 0.00094439
10 *4989:A *5081:D 2.75229e-05
11 *4989:A *173:53 0
12 *4989:A *173:73 0.000161204
13 *4989:A *173:82 0.000241483
14 *4989:A *173:93 0.000241483
15 *4989:A *173:112 0.00070819
16 *4989:A *227:12 0.000415533
17 *5037:A pad_uio_oex[3] 6.10821e-05
18 *5037:A spine_top_iw[19] 6.57653e-06
19 *5037:A spine_top_iw[24] 0
20 *5037:A *5147:A 0.000541088
21 *5037:A *5148:A 0.000119831
22 *5037:A *5205:A 0.000905734
23 *5037:A *21:11 0.000235105
24 *5037:A *203:86 0
25 *20:9 pad_uio_oex[1] 0.0002286
26 *20:9 pad_uio_out[2] 8.2946e-05
27 *20:9 *5147:A 0.000344654
28 *20:9 *21:11 0
29 *20:34 pad_uio_oex[2] 0
30 *20:34 *21:13 0
31 *4985:A *4989:A 0.000399577
32 *5015:A *5037:A 0.0020416
33 *5021:A *20:34 0.000293712
34 *5023:A *20:34 0.000100301
35 *5025:A *20:34 0
36 *5035:A *5037:A 0.000181618
37 *5035:A *20:9 0.000338927
38 *12:28 *4989:A 0.000115582
39 *12:28 *20:34 0.00121648
40 *12:28 *20:38 0.000126452
41 *12:30 *20:34 0.00108564
42 *13:13 *4989:A 4.26188e-05
43 *13:13 *20:34 0.00187312
44 *13:13 *20:38 5.59134e-05
45 *14:26 *20:34 0
46 *19:9 *20:9 0
*RES
1 pad_uio_in[2] *20:9 2.66853 
2 *20:9 *5037:A 44.7212 
3 *20:9 *20:32 0.5 
4 *20:32 *20:34 51.615 
5 *20:34 *20:38 1.9575 
6 *20:38 *4989:A 45.585 
7 *20:38 *5072:DIODE 3.6 
*END

*D_NET *21 0.0272331
*CONN
*P pad_uio_in[3] I
*I *5039:A I *D sky130_fd_sc_hd__and2_2
*I *5073:DIODE I *D sky130_fd_sc_hd__diode_2
*I *4991:A I *D sky130_fd_sc_hd__and2_2
*CAP
1 pad_uio_in[3] 0.000838291
2 *5039:A 0.00343201
3 *5073:DIODE 0.000106195
4 *4991:A 0.00129043
5 *21:17 0.00145014
6 *21:13 0.00183015
7 *21:11 0.00604693
8 *4991:A *173:112 8.65961e-05
9 *4991:A *173:123 0.000421062
10 *5039:A *5056:A 1.83847e-05
11 *5039:A *5149:A 0.000435133
12 *5039:A *281:12 2.41376e-05
13 *21:11 pad_uio_oex[2] 5.36723e-05
14 *21:11 pad_uio_out[2] 6.03915e-06
15 *21:11 pad_uio_out[3] 0.000168703
16 *21:13 pad_uio_oex[2] 2.78091e-05
17 *21:13 pad_uio_oex[3] 0
18 *4967:A *4991:A 0.0017254
19 *4985:A *4991:A 0.000269568
20 *5017:A *21:13 0.000298442
21 *5021:A *21:13 0
22 *5035:A *21:11 0.000239602
23 *5037:A *21:11 0.000235105
24 *5063:DIODE *21:13 0.0012408
25 *10:34 *4991:A 0.00013789
26 *10:34 *5073:DIODE 2.65814e-06
27 *10:34 *21:13 5.39961e-05
28 *10:34 *21:17 2.50049e-05
29 *10:36 *21:13 0.00308725
30 *12:30 *21:13 0
31 *19:46 *4991:A 0.00368166
32 *20:9 *21:11 0
33 *20:34 *21:13 0
*RES
1 pad_uio_in[3] *21:11 3.07987 
2 *21:11 *21:13 51.9975 
3 *21:13 *21:17 1.065 
4 *21:17 *4991:A 44.49 
5 *21:17 *5073:DIODE 4.74 
6 *21:11 *5039:A 46.345 
*END

*D_NET *22 0.024765
*CONN
*P pad_uio_in[4] I
*I *5041:A I *D sky130_fd_sc_hd__and2_2
*I *5074:DIODE I *D sky130_fd_sc_hd__diode_2
*I *4993:A I *D sky130_fd_sc_hd__and2_2
*CAP
1 pad_uio_in[4] 0.00096982
2 *5041:A 0.00206091
3 *5074:DIODE 0
4 *4993:A 0.00240978
5 *22:13 0.00560002
6 *22:11 0.00622097
7 *4993:A *4984:A 8.65905e-05
8 *4993:A *4986:A 4.82863e-05
9 *4993:A *4988:A 8.65905e-05
10 *4993:A *4990:A 0.000123225
11 *4993:A *4993:B 5.4155e-06
12 *4993:A *5081:D 4.99619e-05
13 *4993:A *173:53 0.000182888
14 *4993:A *173:66 8.65961e-05
15 *4993:A *173:73 0.000344737
16 *4993:A *173:82 0.000134314
17 *4993:A *173:93 0.000131166
18 *4993:A *173:112 0.000564125
19 *5041:A *5035:B 0
20 *5041:A *5037:B 1.85674e-05
21 *5041:A *5204:A 0.000704846
22 *5041:A *5206:A 2.89319e-05
23 *5041:A *203:69 0.00023931
24 *5041:A *203:86 0.000183163
25 *5041:A *203:97 0.000149977
26 *5041:A *203:104 0.000199407
27 *5041:A *203:181 0.000243018
28 *5041:A *203:187 0.000588822
29 *5041:A *203:194 0.000290742
30 *22:11 pad_uio_oex[3] 5.36723e-05
31 *22:11 pad_uio_out[3] 5.6003e-06
32 *22:11 pad_uio_out[4] 5.36723e-05
33 *22:11 spine_top_iw[0] 0
34 *22:11 *5148:A 0.000375674
35 *22:13 pad_uio_oex[3] 0
36 *22:13 *5150:A 0
37 *22:13 *5205:A 0
38 *22:13 *5206:A 3.64367e-05
39 *4985:A *4993:A 0.000318804
40 *4989:A *4993:A 0.00094439
41 *5013:A *5041:A 0.00102881
42 *5033:A *22:11 0.000195769
*RES
1 pad_uio_in[4] *22:11 2.9684 
2 *22:11 *22:13 52.5075 
3 *22:13 *4993:A 44.46 
4 *22:13 *5074:DIODE 3.6 
5 *22:11 *5041:A 39.4425 
*END

*D_NET *23 0.0258874
*CONN
*P pad_uio_in[5] I
*I *4995:A I *D sky130_fd_sc_hd__and2_2
*I *5043:A I *D sky130_fd_sc_hd__and2_2
*I *5075:DIODE I *D sky130_fd_sc_hd__diode_2
*CAP
1 pad_uio_in[5] 0.000491219
2 *4995:A 0.00280345
3 *5043:A 0.00236055
4 *5075:DIODE 0.00280345
5 *23:15 0.00279382
6 *23:13 0.00564559
7 *4995:A *5234:A1 8.73389e-06
8 *4995:A *5234:S 0.000414041
9 *4995:A *5242:A 0.000464505
10 *4995:A *173:8 0
11 *5043:A *4945:A 0.000307138
12 *5043:A *5045:A 0.00171928
13 *5043:A *5046:A 8.64421e-05
14 *5043:A *5176:A1 2.65814e-06
15 *5043:A *140:8 8.65905e-05
16 *5043:A *142:22 8.696e-05
17 *5043:A *144:22 8.65961e-05
18 *5043:A *170:65 1.46744e-05
19 *5043:A *171:115 0.000122331
20 *5043:A *171:117 0.00031651
21 *5043:A *171:119 0.000583656
22 *5043:A *171:121 0.000191232
23 *5043:A *171:123 0.000429746
24 *5043:A *171:125 4.82919e-05
25 *5043:A *203:36 1.77665e-05
26 *5043:A *203:43 8.79355e-05
27 *5043:A *280:8 7.67415e-06
28 *23:13 pad_uio_oex[4] 0.000310945
29 *23:13 pad_uio_out[5] 0.000308766
30 *23:13 *5160:A 8.17606e-05
31 *23:15 spine_top_ow[24] 0
32 *23:15 *5151:A 0
33 *23:15 *5160:A 0.00039968
34 *23:15 *5168:A 0.000110307
35 *23:15 *5175:A0 0
36 *23:15 *5176:A0 0
37 *23:15 *5176:S 3.81581e-05
38 *23:15 *5177:A1 0.000159957
39 *23:15 *5178:A0 0.00025929
40 *23:15 *5178:A1 4.05358e-05
41 *23:15 *5202:A0 0
42 *23:15 *96:8 0.00219718
43 *23:15 *152:20 0
*RES
1 pad_uio_in[5] *23:13 3.53523 
2 *23:13 *23:15 63.09 
3 *23:15 *5075:DIODE 3.6 
4 *23:13 *5043:A 45.705 
5 *5075:DIODE *4995:A 48.615 
*END

*D_NET *24 0.0254456
*CONN
*P pad_uio_in[6] I
*I *4997:A I *D sky130_fd_sc_hd__and2_2
*I *5045:A I *D sky130_fd_sc_hd__and2_2
*I *5076:DIODE I *D sky130_fd_sc_hd__diode_2
*CAP
1 pad_uio_in[6] 0.000859275
2 *4997:A 0
3 *5045:A 0.000422992
4 *5076:DIODE 0.00294535
5 *24:54 0.00294535
6 *24:32 0.00238305
7 *24:15 0.0033245
8 *24:13 0.00614384
9 *5045:A *4959:TE_B 0.000163204
10 *5045:A *5180:A 8.49205e-05
11 *5045:A *5181:A 0.00012657
12 *5045:A *5193:A 0.000275746
13 *5045:A *5194:A 8.65961e-05
14 *5045:A *5196:A0 0.000101865
15 *5045:A *170:65 0.000266288
16 *5045:A *280:8 0.000377601
17 *24:13 pad_uio_oex[5] 5.36723e-05
18 *24:13 pad_uio_out[5] 0.000125781
19 *24:13 pad_uio_out[6] 5.81169e-05
20 *24:13 *5152:A 0
21 *24:13 *5176:A0 0
22 *24:13 *5177:A0 0
23 *24:13 *5210:A 0
24 *24:13 *304:28 0
25 *24:15 pad_uio_oex[4] 0.000337626
26 *24:15 pad_uio_out[5] 0.000352853
27 *24:15 *5176:A0 0
28 *24:15 *5177:A0 0
29 *24:32 *5171:S 0.000225094
30 *24:32 *5177:S 1.47347e-05
31 *24:32 *5182:A 0.000113662
32 *24:32 *5198:A0 0
33 *24:32 *5198:A1 0
34 *24:32 *5199:A1 8.53113e-06
35 *24:32 *5202:A0 0.000348899
36 *24:32 *5210:A 0.000308031
37 *24:32 *5233:A1 0
38 *24:32 *171:115 8.53113e-06
39 *24:32 *238:218 0.000424534
40 *24:32 *238:227 3.3795e-05
41 *24:32 *238:229 4.9969e-05
42 *24:32 *304:28 0.000134696
43 *24:54 *4904:A 8.64421e-05
44 *24:54 *4912:A 8.69583e-05
45 *24:54 *5224:A 0.000237243
46 *24:54 *5234:A0 7.22354e-05
47 *24:54 *96:8 4.49498e-05
48 *24:54 *166:10 9.27495e-05
49 *5043:A *5045:A 0.00171928
*RES
1 pad_uio_in[6] *24:13 10.41 
2 *24:13 *24:15 60.03 
3 *24:15 *5076:DIODE 3.6 
4 *24:13 *24:32 32.475 
5 *24:32 *5045:A 21.025 
6 *5076:DIODE *24:54 48.935 
7 *24:54 *4997:A 1.6 
*END

*D_NET *25 0.0292135
*CONN
*P pad_uio_in[7] I
*I *5047:A I *D sky130_fd_sc_hd__and2_2
*I *5077:DIODE I *D sky130_fd_sc_hd__diode_2
*I *4999:A I *D sky130_fd_sc_hd__and2_2
*CAP
1 pad_uio_in[7] 0.0010457
2 *5047:A 0.00316902
3 *5077:DIODE 0
4 *4999:A 0.00247721
5 *25:49 0.00388371
6 *25:21 0.00352733
7 *25:13 0.0047123
8 *25:11 0.00542257
9 *4999:A *4921:A 0.000178001
10 *4999:A *4923:A 6.24773e-06
11 *4999:A *4923:TE_B 3.17443e-05
12 *4999:A *166:88 3.1835e-05
13 *5047:A *4950:A 0.000119645
14 *5047:A *4950:TE_B 1.83847e-05
15 *5047:A *4952:A 6.51658e-05
16 *5047:A *4952:TE_B 6.19997e-05
17 *5047:A *5114:DIODE 6.27438e-05
18 *5047:A *5199:S 0.000288974
19 *5047:A *5226:A 2.04902e-05
20 *5047:A *5228:A1 1.80653e-05
21 *5047:A *5233:A0 9.16226e-05
22 *5047:A *203:21 0.000111012
23 *5047:A *283:16 8.49205e-05
24 *5047:A *304:28 0.000642695
25 *5047:A *309:16 0.000367044
26 *25:11 pad_uio_oex[6] 5.36723e-05
27 *25:11 pad_uio_oex[7] 6.4603e-05
28 *25:11 pad_uio_out[6] 5.6003e-06
29 *25:11 pad_uio_out[7] 2.43986e-05
30 *25:11 pad_uo_out[1] 0
31 *25:13 pad_uio_out[5] 0
32 *4910:A *4999:A 0.000200201
33 *4911:A *4999:A 0.00116867
34 *3:24 *25:13 0
35 *3:24 *25:21 0
36 *5:45 *4999:A 0.000235146
37 *5:45 *25:21 0.00102277
*RES
1 pad_uio_in[7] *25:11 3.39907 
2 *25:11 *25:13 58.8825 
3 *25:13 *25:21 21.05 
4 *25:21 *4999:A 34.96 
5 *25:13 *5077:DIODE 3.6 
6 *25:11 *25:49 12.035 
7 *25:49 *5047:A 45.38 
*END

*D_NET *26 0.000785828
*CONN
*P pad_uio_oex[0] O
*I *5147:Y O *D sky130_fd_sc_hd__bufinv_8
*CAP
1 pad_uio_oex[0] 0.000263733
2 *5147:Y 0.000263733
3 pad_uio_oex[0] pad_uio_out[0] 9.64082e-05
4 *5031:A pad_uio_oex[0] 0
5 *18:11 pad_uio_oex[0] 1.80802e-05
6 *19:9 pad_uio_oex[0] 0.000143874
*RES
1 *5147:Y pad_uio_oex[0] 7.1723 
*END

*D_NET *27 0.00080893
*CONN
*P pad_uio_oex[1] O
*I *5148:Y O *D sky130_fd_sc_hd__bufinv_8
*CAP
1 pad_uio_oex[1] 0.000140495
2 *5148:Y 0.000140495
3 pad_uio_oex[1] pad_uio_out[1] 0.000280587
4 *5031:A pad_uio_oex[1] 1.40792e-05
5 *19:9 pad_uio_oex[1] 4.67438e-06
6 *20:9 pad_uio_oex[1] 0.0002286
*RES
1 *5148:Y pad_uio_oex[1] 5.84243 
*END

*D_NET *28 0.00200468
*CONN
*P pad_uio_oex[2] O
*I *5149:Y O *D sky130_fd_sc_hd__bufinv_8
*CAP
1 pad_uio_oex[2] 0.000835148
2 *5149:Y 0.000835148
3 pad_uio_oex[2] pad_uio_oex[3] 0
4 pad_uio_oex[2] pad_uio_out[2] 0.000252902
5 pad_uio_oex[2] pad_uio_out[3] 0
6 pad_uio_oex[2] *5148:A 0
7 pad_uio_oex[2] *279:16 0
8 *5031:A pad_uio_oex[2] 0
9 *20:34 pad_uio_oex[2] 0
10 *21:11 pad_uio_oex[2] 5.36723e-05
11 *21:13 pad_uio_oex[2] 2.78091e-05
*RES
1 *5149:Y pad_uio_oex[2] 15.3652 
*END

*D_NET *29 0.00234173
*CONN
*P pad_uio_oex[3] O
*I *5150:Y O *D sky130_fd_sc_hd__bufinv_8
*CAP
1 pad_uio_oex[3] 0.00108665
2 *5150:Y 0.00108665
3 pad_uio_oex[3] pad_uio_out[3] 5.36723e-05
4 pad_uio_oex[3] pad_uio_out[4] 0
5 pad_uio_oex[3] *5206:A 0
6 pad_uio_oex[2] pad_uio_oex[3] 0
7 *5037:A pad_uio_oex[3] 6.10821e-05
8 *21:13 pad_uio_oex[3] 0
9 *22:11 pad_uio_oex[3] 5.36723e-05
10 *22:13 pad_uio_oex[3] 0
*RES
1 *5150:Y pad_uio_oex[3] 19.0737 
*END

*D_NET *30 0.00371033
*CONN
*P pad_uio_oex[4] O
*I *5151:Y O *D sky130_fd_sc_hd__bufinv_8
*CAP
1 pad_uio_oex[4] 0.00108772
2 *5151:Y 0.00108772
3 pad_uio_oex[4] pad_uio_out[5] 5.12007e-05
4 pad_uio_oex[4] spine_top_ow[24] 0
5 pad_uio_oex[4] *5140:DIODE 0
6 pad_uio_oex[4] *5177:A0 0.000835129
7 *23:13 pad_uio_oex[4] 0.000310945
8 *24:15 pad_uio_oex[4] 0.000337626
*RES
1 *5151:Y pad_uio_oex[4] 16.1447 
*END

*D_NET *31 0.00141604
*CONN
*P pad_uio_oex[5] O
*I *5152:Y O *D sky130_fd_sc_hd__bufinv_8
*CAP
1 pad_uio_oex[5] 0.000554456
2 *5152:Y 0.000554456
3 pad_uio_oex[5] pad_uio_out[5] 0.000247257
4 pad_uio_oex[5] pad_uio_out[6] 6.20274e-06
5 pad_uio_oex[5] *5210:A 0
6 *24:13 pad_uio_oex[5] 5.36723e-05
*RES
1 *5152:Y pad_uio_oex[5] 6.2199 
*END

*D_NET *32 0.0011918
*CONN
*P pad_uio_oex[6] O
*I *5153:Y O *D sky130_fd_sc_hd__bufinv_8
*CAP
1 pad_uio_oex[6] 0.00054223
2 *5153:Y 0.00054223
3 pad_uio_oex[6] pad_uio_oex[7] 0
4 pad_uio_oex[6] pad_uio_out[6] 5.36723e-05
5 pad_uio_oex[6] pad_uio_out[7] 0
6 pad_uio_oex[6] pad_uo_out[0] 0
7 *25:11 pad_uio_oex[6] 5.36723e-05
*RES
1 *5153:Y pad_uio_oex[6] 10.9137 
*END

*D_NET *33 0.00265029
*CONN
*P pad_uio_oex[7] O
*I *5154:Y O *D sky130_fd_sc_hd__bufinv_8
*CAP
1 pad_uio_oex[7] 0.000721938
2 *5154:Y 0.000721938
3 pad_uio_oex[7] pad_uio_out[7] 2.88432e-05
4 pad_uio_oex[7] pad_uo_out[0] 0.00110633
5 pad_uio_oex[7] pad_uo_out[1] 6.64159e-06
6 pad_uio_oex[6] pad_uio_oex[7] 0
7 *25:11 pad_uio_oex[7] 6.4603e-05
*RES
1 *5154:Y pad_uio_oex[7] 15.0258 
*END

*D_NET *34 0.000621823
*CONN
*P pad_uio_out[0] O
*I *5203:Y O *D sky130_fd_sc_hd__bufinv_8
*CAP
1 pad_uio_out[0] 0.000235871
2 *5203:Y 0.000235871
3 pad_uio_oex[0] pad_uio_out[0] 9.64082e-05
4 *5031:A pad_uio_out[0] 0
5 *18:11 pad_uio_out[0] 5.36723e-05
*RES
1 *5203:Y pad_uio_out[0] 6.77543 
*END

*D_NET *35 0.00138891
*CONN
*P pad_uio_out[1] O
*I *5204:Y O *D sky130_fd_sc_hd__bufinv_8
*CAP
1 pad_uio_out[1] 0.000383609
2 *5204:Y 0.000383609
3 pad_uio_out[1] *5147:A 9.92495e-05
4 pad_uio_out[1] *279:16 0
5 pad_uio_oex[1] pad_uio_out[1] 0.000280587
6 *5031:A pad_uio_out[1] 4.38825e-05
7 *19:9 pad_uio_out[1] 0.000197976
*RES
1 *5204:Y pad_uio_out[1] 8.85263 
*END

*D_NET *36 0.000897733
*CONN
*P pad_uio_out[2] O
*I *5205:Y O *D sky130_fd_sc_hd__bufinv_8
*CAP
1 pad_uio_out[2] 0.000277923
2 *5205:Y 0.000277923
3 pad_uio_oex[2] pad_uio_out[2] 0.000252902
4 *5031:A pad_uio_out[2] 0
5 *20:9 pad_uio_out[2] 8.2946e-05
6 *21:11 pad_uio_out[2] 6.03915e-06
*RES
1 *5205:Y pad_uio_out[2] 6.58463 
*END

*D_NET *37 0.000856558
*CONN
*P pad_uio_out[3] O
*I *5206:Y O *D sky130_fd_sc_hd__bufinv_8
*CAP
1 pad_uio_out[3] 0.000314292
2 *5206:Y 0.000314292
3 pad_uio_oex[2] pad_uio_out[3] 0
4 pad_uio_oex[3] pad_uio_out[3] 5.36723e-05
5 *5031:A pad_uio_out[3] 0
6 *21:11 pad_uio_out[3] 0.000168703
7 *22:11 pad_uio_out[3] 5.6003e-06
*RES
1 *5206:Y pad_uio_out[3] 6.8067 
*END

*D_NET *38 0.000877188
*CONN
*P pad_uio_out[4] O
*I *5207:Y O *D sky130_fd_sc_hd__bufinv_8
*CAP
1 pad_uio_out[4] 0.000411758
2 *5207:Y 0.000411758
3 pad_uio_out[4] spine_top_iw[0] 0
4 pad_uio_out[4] *5205:A 0
5 pad_uio_oex[3] pad_uio_out[4] 0
6 *22:11 pad_uio_out[4] 5.36723e-05
*RES
1 *5207:Y pad_uio_out[4] 8.6187 
*END

*D_NET *39 0.00339905
*CONN
*P pad_uio_out[5] O
*I *5208:Y O *D sky130_fd_sc_hd__bufinv_8
*CAP
1 pad_uio_out[5] 0.0011566
2 *5208:Y 0.0011566
3 pad_uio_oex[4] pad_uio_out[5] 5.12007e-05
4 pad_uio_oex[5] pad_uio_out[5] 0.000247257
5 *23:13 pad_uio_out[5] 0.000308766
6 *24:13 pad_uio_out[5] 0.000125781
7 *24:15 pad_uio_out[5] 0.000352853
8 *25:13 pad_uio_out[5] 0
*RES
1 *5208:Y pad_uio_out[5] 16.7104 
*END

*D_NET *40 0.000702821
*CONN
*P pad_uio_out[6] O
*I *5209:Y O *D sky130_fd_sc_hd__bufinv_8
*CAP
1 pad_uio_out[6] 0.000289614
2 *5209:Y 0.000289614
3 pad_uio_oex[5] pad_uio_out[6] 6.20274e-06
4 pad_uio_oex[6] pad_uio_out[6] 5.36723e-05
5 *24:13 pad_uio_out[6] 5.81169e-05
6 *25:11 pad_uio_out[6] 5.6003e-06
*RES
1 *5209:Y pad_uio_out[6] 5.44557 
*END

*D_NET *41 0.000807785
*CONN
*P pad_uio_out[7] O
*I *5210:Y O *D sky130_fd_sc_hd__bufinv_8
*CAP
1 pad_uio_out[7] 0.000377272
2 *5210:Y 0.000377272
3 pad_uio_oex[6] pad_uio_out[7] 0
4 pad_uio_oex[7] pad_uio_out[7] 2.88432e-05
5 *25:11 pad_uio_out[7] 2.43986e-05
*RES
1 *5210:Y pad_uio_out[7] 9.43603 
*END

*D_NET *42 0.00318542
*CONN
*P pad_uo_out[0] O
*I *5235:Y O *D sky130_fd_sc_hd__bufinv_8
*CAP
1 pad_uo_out[0] 0.000895455
2 *5235:Y 0.000895455
3 pad_uo_out[0] pad_uo_out[1] 0.000288178
4 pad_uo_out[0] *5240:A 0
5 pad_uio_oex[6] pad_uo_out[0] 0
6 pad_uio_oex[7] pad_uo_out[0] 0.00110633
*RES
1 *5235:Y pad_uo_out[0] 19.6462 
*END

*D_NET *43 0.00116394
*CONN
*P pad_uo_out[1] O
*I *5236:Y O *D sky130_fd_sc_hd__bufinv_8
*CAP
1 pad_uo_out[1] 0.00027342
2 *5236:Y 0.00027342
3 pad_uo_out[1] pad_uo_out[2] 0.000322276
4 pad_uo_out[1] pad_uo_out[4] 0
5 pad_uio_oex[7] pad_uo_out[1] 6.64159e-06
6 pad_uo_out[0] pad_uo_out[1] 0.000288178
7 *25:11 pad_uo_out[1] 0
*RES
1 *5236:Y pad_uo_out[1] 6.07637 
*END

*D_NET *44 0.00186403
*CONN
*P pad_uo_out[2] O
*I *5237:Y O *D sky130_fd_sc_hd__bufinv_8
*CAP
1 pad_uo_out[2] 0.000614374
2 *5237:Y 0.000614374
3 pad_uo_out[2] pad_uo_out[3] 0.000313007
4 pad_uo_out[1] pad_uo_out[2] 0.000322276
*RES
1 *5237:Y pad_uo_out[2] 13.2408 
*END

*D_NET *45 0.00207538
*CONN
*P pad_uo_out[3] O
*I *5238:Y O *D sky130_fd_sc_hd__bufinv_8
*CAP
1 pad_uo_out[3] 0.000723202
2 *5238:Y 0.000723202
3 pad_uo_out[3] pad_uo_out[4] 0.000315968
4 pad_uo_out[2] pad_uo_out[3] 0.000313007
*RES
1 *5238:Y pad_uo_out[3] 15.0258 
*END

*D_NET *46 0.00285509
*CONN
*P pad_uo_out[4] O
*I *5239:Y O *D sky130_fd_sc_hd__bufinv_8
*CAP
1 pad_uo_out[4] 0.000896796
2 *5239:Y 0.000896796
3 pad_uo_out[4] pad_uo_out[5] 0.000745529
4 pad_uo_out[1] pad_uo_out[4] 0
5 pad_uo_out[3] pad_uo_out[4] 0.000315968
*RES
1 *5239:Y pad_uo_out[4] 15.7149 
*END

*D_NET *47 0.00264294
*CONN
*P pad_uo_out[5] O
*I *5240:Y O *D sky130_fd_sc_hd__bufinv_8
*CAP
1 pad_uo_out[5] 0.000878991
2 *5240:Y 0.000878991
3 pad_uo_out[5] pad_uo_out[6] 0.000139429
4 pad_uo_out[4] pad_uo_out[5] 0.000745529
*RES
1 *5240:Y pad_uo_out[5] 13.2883 
*END

*D_NET *48 0.00105664
*CONN
*P pad_uo_out[6] O
*I *5241:Y O *D sky130_fd_sc_hd__bufinv_8
*CAP
1 pad_uo_out[6] 0.000458605
2 *5241:Y 0.000458605
3 pad_uo_out[5] pad_uo_out[6] 0.000139429
*RES
1 *5241:Y pad_uo_out[6] 9.63403 
*END

*D_NET *49 0.00114228
*CONN
*P pad_uo_out[7] O
*I *5242:Y O *D sky130_fd_sc_hd__bufinv_8
*CAP
1 pad_uo_out[7] 0.000420631
2 *5242:Y 0.000420631
3 k_one pad_uo_out[7] 0
4 *3:13 pad_uo_out[7] 0.000301017
*RES
1 *5242:Y pad_uo_out[7] 7.26777 
*END

*D_NET *50 0.000639332
*CONN
*P spine_bot_iw[0] O
*I *5010:LO O *D sky130_fd_sc_hd__conb_1
*CAP
1 spine_bot_iw[0] 0.000286434
2 *5010:LO 0.000286434
3 spine_bot_iw[0] spine_bot_iw[1] 5.36632e-05
4 spine_bot_iw[0] spine_bot_iw[2] 1.28002e-05
*RES
1 *5010:LO spine_bot_iw[0] 7.2829 
*END

*D_NET *51 0.00475607
*CONN
*P spine_bot_iw[10] O
*I *5009:X O *D sky130_fd_sc_hd__buf_8
*CAP
1 spine_bot_iw[10] 0.00125188
2 *5009:X 0.00125188
3 spine_bot_iw[10] spine_bot_iw[11] 0.00011118
4 spine_bot_iw[10] spine_bot_iw[12] 5.51841e-05
5 spine_bot_iw[10] spine_bot_iw[9] 0.000519372
6 spine_bot_iw[10] *4968:A 0.000293719
7 spine_bot_iw[10] *5006:A 0.000476003
8 spine_bot_iw[10] *5007:A 0.000189291
9 spine_bot_iw[10] *5054:A 0.000225394
10 spine_bot_iw[10] *5079:CLK 0.000106824
11 spine_bot_iw[10] *5080:CLK 0
12 spine_bot_iw[10] *5081:CLK 0
13 spine_bot_iw[10] *5081:D 4.09116e-05
14 spine_bot_iw[10] *5082:CLK 0.000131016
15 spine_bot_iw[10] *5082:RESET_B 0
16 spine_bot_iw[10] *173:112 4.33044e-05
17 spine_bot_iw[10] *227:12 1.88904e-05
18 *4979:A spine_bot_iw[10] 4.12303e-05
*RES
1 *5009:X spine_bot_iw[10] 25.9149 
*END

*D_NET *52 0.00255204
*CONN
*P spine_bot_iw[11] O
*I *4966:X O *D sky130_fd_sc_hd__buf_8
*CAP
1 spine_bot_iw[11] 0.00110591
2 *4966:X 0.00110591
3 spine_bot_iw[11] spine_bot_iw[12] 0.0001146
4 spine_bot_iw[11] spine_bot_iw[13] 4.09223e-05
5 spine_bot_iw[11] spine_bot_iw[4] 0
6 spine_bot_iw[11] spine_bot_iw[6] 3.16333e-05
7 spine_bot_iw[11] spine_bot_iw[7] 3.73195e-05
8 spine_bot_iw[11] spine_bot_iw[8] 4.56278e-06
9 spine_bot_iw[11] *173:129 0
10 spine_bot_iw[10] spine_bot_iw[11] 0.00011118
11 *4981:A spine_bot_iw[11] 0
*RES
1 *4966:X spine_bot_iw[11] 9.07477 
*END

*D_NET *53 0.00215667
*CONN
*P spine_bot_iw[12] O
*I *4968:X O *D sky130_fd_sc_hd__buf_8
*CAP
1 spine_bot_iw[12] 0.000818765
2 *4968:X 0.000818765
3 spine_bot_iw[12] spine_bot_iw[13] 0.000133248
4 spine_bot_iw[12] spine_bot_iw[15] 0
5 spine_bot_iw[12] *5078:CLK 0.000134634
6 spine_bot_iw[12] *5079:CLK 0
7 spine_bot_iw[12] *173:153 0
8 spine_bot_iw[10] spine_bot_iw[12] 5.51841e-05
9 spine_bot_iw[11] spine_bot_iw[12] 0.0001146
10 *4981:A spine_bot_iw[12] 8.1472e-05
*RES
1 *4968:X spine_bot_iw[12] 12.1964 
*END

*D_NET *54 0.00135716
*CONN
*P spine_bot_iw[13] O
*I *4970:X O *D sky130_fd_sc_hd__buf_8
*CAP
1 spine_bot_iw[13] 0.00044094
2 *4970:X 0.00044094
3 spine_bot_iw[13] spine_bot_iw[14] 5.51039e-05
4 spine_bot_iw[13] spine_bot_iw[15] 3.48408e-05
5 spine_bot_iw[13] *4970:A 0
6 spine_bot_iw[13] *4972:A 0.00021116
7 spine_bot_iw[11] spine_bot_iw[13] 4.09223e-05
8 spine_bot_iw[12] spine_bot_iw[13] 0.000133248
9 *4981:A spine_bot_iw[13] 0
*RES
1 *4970:X spine_bot_iw[13] 8.09017 
*END

*D_NET *55 0.000579989
*CONN
*P spine_bot_iw[14] O
*I *4972:X O *D sky130_fd_sc_hd__buf_8
*CAP
1 spine_bot_iw[14] 0.000233384
2 *4972:X 0.000233384
3 spine_bot_iw[14] spine_bot_iw[15] 5.81169e-05
4 spine_bot_iw[13] spine_bot_iw[14] 5.51039e-05
*RES
1 *4972:X spine_bot_iw[14] 6.52043 
*END

*D_NET *56 0.00126366
*CONN
*P spine_bot_iw[15] O
*I *4974:X O *D sky130_fd_sc_hd__buf_8
*CAP
1 spine_bot_iw[15] 0.000471461
2 *4974:X 0.000471461
3 spine_bot_iw[15] spine_bot_iw[16] 5.36632e-05
4 spine_bot_iw[15] spine_bot_iw[17] 5.13686e-05
5 spine_bot_iw[12] spine_bot_iw[15] 0
6 spine_bot_iw[13] spine_bot_iw[15] 3.48408e-05
7 spine_bot_iw[14] spine_bot_iw[15] 5.81169e-05
8 *4981:A spine_bot_iw[15] 0.000122749
*RES
1 *4974:X spine_bot_iw[15] 6.2841 
*END

*D_NET *57 0.000489613
*CONN
*P spine_bot_iw[16] O
*I *4976:X O *D sky130_fd_sc_hd__buf_8
*CAP
1 spine_bot_iw[16] 0.000188916
2 *4976:X 0.000188916
3 spine_bot_iw[16] spine_bot_iw[17] 5.81169e-05
4 spine_bot_iw[16] *4976:A 0
5 spine_bot_iw[15] spine_bot_iw[16] 5.36632e-05
*RES
1 *4976:X spine_bot_iw[16] 6.85563 
*END

*D_NET *58 0.0010719
*CONN
*P spine_bot_iw[17] O
*I *4978:X O *D sky130_fd_sc_hd__buf_8
*CAP
1 spine_bot_iw[17] 0.00029963
2 *4978:X 0.00029963
3 spine_bot_iw[17] spine_bot_iw[18] 0.000283724
4 spine_bot_iw[17] *4974:A 6.63219e-06
5 spine_bot_iw[15] spine_bot_iw[17] 5.13686e-05
6 spine_bot_iw[16] spine_bot_iw[17] 5.81169e-05
7 *4981:A spine_bot_iw[17] 7.27954e-05
*RES
1 *4978:X spine_bot_iw[17] 6.05103 
*END

*D_NET *59 0.00111521
*CONN
*P spine_bot_iw[18] O
*I *4980:X O *D sky130_fd_sc_hd__buf_8
*CAP
1 spine_bot_iw[18] 0.000291743
2 *4980:X 0.000291743
3 spine_bot_iw[18] spine_bot_iw[19] 0.00013942
4 spine_bot_iw[18] spine_bot_iw[20] 2.49075e-05
5 spine_bot_iw[18] spine_bot_iw[21] 0
6 spine_bot_iw[18] *4976:A 0
7 spine_bot_iw[18] *4978:A 7.35868e-05
8 spine_bot_iw[17] spine_bot_iw[18] 0.000283724
9 *4981:A spine_bot_iw[18] 1.00909e-05
*RES
1 *4980:X spine_bot_iw[18] 7.0347 
*END

*D_NET *60 0.000757834
*CONN
*P spine_bot_iw[19] O
*I *4982:X O *D sky130_fd_sc_hd__buf_8
*CAP
1 spine_bot_iw[19] 0.000222576
2 *4982:X 0.000222576
3 spine_bot_iw[19] spine_bot_iw[20] 0.000173262
4 spine_bot_iw[19] *4976:A 0
5 spine_bot_iw[18] spine_bot_iw[19] 0.00013942
*RES
1 *4982:X spine_bot_iw[19] 7.36903 
*END

*D_NET *61 0.000442074
*CONN
*P spine_bot_iw[1] O
*I *4964:X O *D sky130_fd_sc_hd__buf_8
*CAP
1 spine_bot_iw[1] 0.000165147
2 *4964:X 0.000165147
3 spine_bot_iw[1] spine_bot_iw[2] 5.81169e-05
4 spine_bot_iw[0] spine_bot_iw[1] 5.36632e-05
*RES
1 *4964:X spine_bot_iw[1] 6.34563 
*END

*D_NET *62 0.00243473
*CONN
*P spine_bot_iw[20] O
*I *4984:X O *D sky130_fd_sc_hd__buf_8
*CAP
1 spine_bot_iw[20] 0.000807888
2 *4984:X 0.000807888
3 spine_bot_iw[20] spine_bot_iw[21] 0.000258904
4 spine_bot_iw[20] *4976:A 0
5 spine_bot_iw[20] *4978:A 0.000293931
6 spine_bot_iw[20] *4980:A 0
7 spine_bot_iw[20] *4982:A 0
8 spine_bot_iw[20] *173:191 0
9 spine_bot_iw[18] spine_bot_iw[20] 2.49075e-05
10 spine_bot_iw[19] spine_bot_iw[20] 0.000173262
11 *4979:A spine_bot_iw[20] 1.88602e-05
12 *4981:A spine_bot_iw[20] 4.90855e-05
*RES
1 *4984:X spine_bot_iw[20] 15.9099 
*END

*D_NET *63 0.00269276
*CONN
*P spine_bot_iw[21] O
*I *4986:X O *D sky130_fd_sc_hd__buf_8
*CAP
1 spine_bot_iw[21] 0.000889436
2 *4986:X 0.000889436
3 spine_bot_iw[21] spine_bot_iw[22] 0.000570271
4 spine_bot_iw[21] spine_bot_iw[25] 0
5 spine_bot_iw[21] *4988:A 8.47169e-05
6 spine_bot_iw[21] *4990:A 0
7 spine_bot_iw[18] spine_bot_iw[21] 0
8 spine_bot_iw[20] spine_bot_iw[21] 0.000258904
*RES
1 *4986:X spine_bot_iw[21] 9.1289 
*END

*D_NET *64 0.00230338
*CONN
*P spine_bot_iw[22] O
*I *4988:X O *D sky130_fd_sc_hd__buf_8
*CAP
1 spine_bot_iw[22] 0.000509784
2 *4988:X 0.000509784
3 spine_bot_iw[22] spine_bot_iw[23] 0.000570271
4 spine_bot_iw[22] spine_bot_iw[24] 0
5 spine_bot_iw[22] *4990:A 0.000143266
6 spine_bot_iw[21] spine_bot_iw[22] 0.000570271
*RES
1 *4988:X spine_bot_iw[22] 11.0143 
*END

*D_NET *65 0.00196322
*CONN
*P spine_bot_iw[23] O
*I *4990:X O *D sky130_fd_sc_hd__buf_8
*CAP
1 spine_bot_iw[23] 0.000411339
2 *4990:X 0.000411339
3 spine_bot_iw[23] spine_bot_iw[24] 0.000570271
4 spine_bot_iw[22] spine_bot_iw[23] 0.000570271
*RES
1 *4990:X spine_bot_iw[23] 9.17103 
*END

*D_NET *66 0.00222516
*CONN
*P spine_bot_iw[24] O
*I *4992:X O *D sky130_fd_sc_hd__buf_8
*CAP
1 spine_bot_iw[24] 0.000541118
2 *4992:X 0.000541118
3 spine_bot_iw[24] spine_bot_iw[25] 0.000572657
4 spine_bot_iw[24] *4990:A 0
5 spine_bot_iw[24] *4992:A 0
6 spine_bot_iw[24] *5083:RESET_B 0
7 spine_bot_iw[22] spine_bot_iw[24] 0
8 spine_bot_iw[23] spine_bot_iw[24] 0.000570271
*RES
1 *4992:X spine_bot_iw[24] 11.466 
*END

*D_NET *67 0.0027865
*CONN
*P spine_bot_iw[25] O
*I *4994:X O *D sky130_fd_sc_hd__buf_8
*CAP
1 spine_bot_iw[25] 0.000826512
2 *4994:X 0.000826512
3 spine_bot_iw[25] spine_bot_iw[26] 0.000283724
4 spine_bot_iw[25] *4992:A 0
5 spine_bot_iw[25] *5083:RESET_B 0.000277098
6 spine_bot_iw[21] spine_bot_iw[25] 0
7 spine_bot_iw[24] spine_bot_iw[25] 0.000572657
*RES
1 *4994:X spine_bot_iw[25] 9.01237 
*END

*D_NET *68 0.00114304
*CONN
*P spine_bot_iw[26] O
*I *4996:X O *D sky130_fd_sc_hd__buf_8
*CAP
1 spine_bot_iw[26] 0.000287798
2 *4996:X 0.000287798
3 spine_bot_iw[26] spine_bot_iw[27] 0.000283724
4 spine_bot_iw[25] spine_bot_iw[26] 0.000283724
*RES
1 *4996:X spine_bot_iw[26] 7.60297 
*END

*D_NET *69 0.0013968
*CONN
*P spine_bot_iw[27] O
*I *4998:X O *D sky130_fd_sc_hd__buf_8
*CAP
1 spine_bot_iw[27] 0.000362141
2 *4998:X 0.000362141
3 spine_bot_iw[27] spine_bot_iw[28] 0.000283724
4 spine_bot_iw[27] *4996:A 0.000105068
5 spine_bot_iw[26] spine_bot_iw[27] 0.000283724
*RES
1 *4998:X spine_bot_iw[27] 9.38797 
*END

*D_NET *70 0.00112624
*CONN
*P spine_bot_iw[28] O
*I *5000:X O *D sky130_fd_sc_hd__buf_8
*CAP
1 spine_bot_iw[28] 0.000365669
2 *5000:X 0.000365669
3 spine_bot_iw[28] spine_bot_iw[29] 0.00011118
4 spine_bot_iw[27] spine_bot_iw[28] 0.000283724
*RES
1 *5000:X spine_bot_iw[28] 7.2095 
*END

*D_NET *71 0.000652857
*CONN
*P spine_bot_iw[29] O
*I *5011:LO O *D sky130_fd_sc_hd__conb_1
*CAP
1 spine_bot_iw[29] 0.000270838
2 *5011:LO 0.000270838
3 spine_bot_iw[29] *5094:DIODE 0
4 spine_bot_iw[28] spine_bot_iw[29] 0.00011118
*RES
1 *5011:LO spine_bot_iw[29] 7.2829 
*END

*D_NET *72 0.00108327
*CONN
*P spine_bot_iw[2] O
*I *5001:X O *D sky130_fd_sc_hd__buf_8
*CAP
1 spine_bot_iw[2] 0.000338117
2 *5001:X 0.000338117
3 spine_bot_iw[2] spine_bot_iw[3] 0.000287147
4 spine_bot_iw[2] *5001:A 0
5 spine_bot_iw[0] spine_bot_iw[2] 1.28002e-05
6 spine_bot_iw[1] spine_bot_iw[2] 5.81169e-05
7 *4981:A spine_bot_iw[2] 4.89679e-05
*RES
1 *5001:X spine_bot_iw[2] 5.9345 
*END

*D_NET *73 0.00172363
*CONN
*P spine_bot_iw[3] O
*I *5002:X O *D sky130_fd_sc_hd__buf_8
*CAP
1 spine_bot_iw[3] 0.000554536
2 *5002:X 0.000554536
3 spine_bot_iw[3] spine_bot_iw[4] 0.000167663
4 spine_bot_iw[3] spine_bot_iw[5] 8.57238e-05
5 spine_bot_iw[3] *192:19 5.20196e-05
6 spine_bot_iw[2] spine_bot_iw[3] 0.000287147
7 *4979:A spine_bot_iw[3] 2.20023e-05
*RES
1 *5002:X spine_bot_iw[3] 7.38603 
*END

*D_NET *74 0.00123516
*CONN
*P spine_bot_iw[4] O
*I *5003:X O *D sky130_fd_sc_hd__buf_8
*CAP
1 spine_bot_iw[4] 0.000356529
2 *5003:X 0.000356529
3 spine_bot_iw[4] spine_bot_iw[5] 0.000171083
4 spine_bot_iw[4] spine_bot_iw[6] 0
5 spine_bot_iw[4] *5001:A 0.000118513
6 spine_bot_iw[4] *5003:A 0
7 spine_bot_iw[4] *192:19 6.48391e-05
8 spine_bot_iw[11] spine_bot_iw[4] 0
9 spine_bot_iw[3] spine_bot_iw[4] 0.000167663
10 *4981:A spine_bot_iw[4] 0
*RES
1 *5003:X spine_bot_iw[4] 9.29843 
*END

*D_NET *75 0.00294
*CONN
*P spine_bot_iw[5] O
*I *5004:X O *D sky130_fd_sc_hd__buf_8
*CAP
1 spine_bot_iw[5] 0.00108957
2 *5004:X 0.00108957
3 spine_bot_iw[5] spine_bot_iw[6] 0.000355578
4 spine_bot_iw[5] spine_bot_iw[9] 0
5 spine_bot_iw[5] *192:19 0
6 spine_bot_iw[5] *193:8 0.000148475
7 spine_bot_iw[3] spine_bot_iw[5] 8.57238e-05
8 spine_bot_iw[4] spine_bot_iw[5] 0.000171083
9 *4985:A spine_bot_iw[5] 0
*RES
1 *5004:X spine_bot_iw[5] 9.07063 
*END

*D_NET *76 0.0035227
*CONN
*P spine_bot_iw[6] O
*I *5005:X O *D sky130_fd_sc_hd__buf_8
*CAP
1 spine_bot_iw[6] 0.000878771
2 *5005:X 0.000878771
3 spine_bot_iw[6] spine_bot_iw[7] 0.000219008
4 spine_bot_iw[6] spine_bot_iw[8] 5.27682e-06
5 spine_bot_iw[6] *4966:A 0.000289202
6 spine_bot_iw[6] *5003:A 0.000365323
7 spine_bot_iw[6] *5004:A 6.20952e-05
8 spine_bot_iw[6] *5078:RESET_B 0
9 spine_bot_iw[6] *164:78 0
10 spine_bot_iw[6] *164:80 0
11 spine_bot_iw[6] *173:129 0
12 spine_bot_iw[6] *194:19 0.000305933
13 spine_bot_iw[6] *195:17 0.000117716
14 spine_bot_iw[11] spine_bot_iw[6] 3.16333e-05
15 spine_bot_iw[4] spine_bot_iw[6] 0
16 spine_bot_iw[5] spine_bot_iw[6] 0.000355578
17 *4981:A spine_bot_iw[6] 1.33934e-05
*RES
1 *5005:X spine_bot_iw[6] 22.0518 
*END

*D_NET *77 0.00447002
*CONN
*P spine_bot_iw[7] O
*I *5006:X O *D sky130_fd_sc_hd__buf_8
*CAP
1 spine_bot_iw[7] 0.000639147
2 *5006:X 0.000639147
3 spine_bot_iw[7] spine_bot_iw[8] 0.00163641
4 spine_bot_iw[7] *4970:A 0
5 spine_bot_iw[7] *164:76 9.17107e-05
6 spine_bot_iw[7] *164:78 7.59627e-05
7 spine_bot_iw[7] *173:123 0.000706593
8 spine_bot_iw[7] *173:125 0.000296504
9 spine_bot_iw[7] *173:129 0.000128212
10 spine_bot_iw[11] spine_bot_iw[7] 3.73195e-05
11 spine_bot_iw[6] spine_bot_iw[7] 0.000219008
12 *4981:A spine_bot_iw[7] 0
*RES
1 *5006:X spine_bot_iw[7] 22.5922 
*END

*D_NET *78 0.00428601
*CONN
*P spine_bot_iw[8] O
*I *5007:X O *D sky130_fd_sc_hd__buf_8
*CAP
1 spine_bot_iw[8] 0.0008962
2 *5007:X 0.0008962
3 spine_bot_iw[8] spine_bot_iw[9] 0.000779604
4 spine_bot_iw[8] *4970:A 0
5 spine_bot_iw[8] *5053:A 0
6 spine_bot_iw[8] *5079:CLK 0
7 spine_bot_iw[8] *164:76 6.31804e-05
8 spine_bot_iw[11] spine_bot_iw[8] 4.56278e-06
9 spine_bot_iw[6] spine_bot_iw[8] 5.27682e-06
10 spine_bot_iw[7] spine_bot_iw[8] 0.00163641
11 *4981:A spine_bot_iw[8] 4.57523e-06
*RES
1 *5007:X spine_bot_iw[8] 26.0736 
*END

*D_NET *79 0.00440607
*CONN
*P spine_bot_iw[9] O
*I *5008:X O *D sky130_fd_sc_hd__buf_8
*CAP
1 spine_bot_iw[9] 0.00134948
2 *5008:X 0.00134948
3 spine_bot_iw[9] *4968:A 0
4 spine_bot_iw[9] *5006:A 0
5 spine_bot_iw[9] *5053:A 0
6 spine_bot_iw[9] *5054:A 0
7 spine_bot_iw[9] *5079:CLK 0
8 spine_bot_iw[9] *5080:CLK 0.000366021
9 spine_bot_iw[10] spine_bot_iw[9] 0.000519372
10 spine_bot_iw[5] spine_bot_iw[9] 0
11 spine_bot_iw[8] spine_bot_iw[9] 0.000779604
12 *4979:A spine_bot_iw[9] 4.21127e-05
*RES
1 *5008:X spine_bot_iw[9] 24.1299 
*END

*D_NET *80 0.00069014
*CONN
*P spine_bot_ow[0] I
*I *5094:DIODE I *D sky130_fd_sc_hd__diode_2
*CAP
1 spine_bot_ow[0] 0.000231142
2 *5094:DIODE 0.000231142
3 *5094:DIODE spine_bot_ow[1] 0.000108428
4 spine_bot_iw[29] *5094:DIODE 0
5 *4910:A *5094:DIODE 5.53249e-06
6 *4:13 *5094:DIODE 0.000113895
*RES
1 spine_bot_ow[0] *5094:DIODE 7.2829 
*END

*D_NET *81 0.0103308
*CONN
*P spine_bot_ow[10] I
*I *5186:A I *D sky130_fd_sc_hd__inv_2
*I *5095:DIODE I *D sky130_fd_sc_hd__diode_2
*I *4936:Z O *D sky130_fd_sc_hd__ebufn_1
*CAP
1 spine_bot_ow[10] 0.000387801
2 *5186:A 0.000357697
3 *5095:DIODE 0.000357697
4 *4936:Z 0
5 *81:26 0.00203794
6 *81:6 0.00242574
7 spine_bot_ow[10] spine_bot_ow[11] 0.000390522
8 spine_bot_ow[10] spine_bot_ow[7] 0
9 spine_bot_ow[10] spine_bot_ow[9] 0.000252276
10 spine_bot_ow[10] *5224:A 2.23342e-05
11 spine_bot_ow[10] *167:159 2.23342e-05
12 *5186:A *5179:A 9.2741e-05
13 *5186:A *5187:A 6.74079e-05
14 *5186:A *5197:A0 0.000166346
15 *5186:A *5222:A 0.000122331
16 *5186:A *5223:A 0.000120186
17 *5186:A *5233:A0 6.73665e-05
18 *5186:A *160:12 0
19 *81:26 *5096:DIODE 0
20 *81:26 *5187:A 3.67779e-05
21 *81:26 *5217:A 0.000233925
22 *81:26 *5224:A 0.000159755
23 *81:26 *5234:A1 0
24 *81:26 *103:22 0
25 *81:26 *160:12 0.00295042
26 *81:26 *167:159 5.92269e-05
*RES
1 *4936:Z *81:6 3.6 
2 *81:6 spine_bot_ow[10] 2.87577 
3 *81:6 *81:26 48.89 
4 *81:26 *5095:DIODE 1.6 
5 *5095:DIODE *5186:A 15.045 
*END

*D_NET *82 0.00803192
*CONN
*P spine_bot_ow[11] I
*I *5187:A I *D sky130_fd_sc_hd__inv_2
*I *5096:DIODE I *D sky130_fd_sc_hd__diode_2
*I *4914:Z O *D sky130_fd_sc_hd__ebufn_1
*CAP
1 spine_bot_ow[11] 0.000245342
2 *5187:A 0.000251226
3 *5096:DIODE 0.00228846
4 *4914:Z 3.46027e-05
5 *82:8 0.00231718
6 spine_bot_ow[11] spine_bot_ow[12] 0.000394972
7 spine_bot_ow[11] *4915:TE_B 0
8 spine_bot_ow[11] *167:159 0
9 *5096:DIODE spine_bot_ow[12] 6.16226e-06
10 *5096:DIODE *4915:TE_B 0
11 *5096:DIODE *5217:A 0
12 *5096:DIODE *5234:A0 0.000116165
13 *5096:DIODE *5234:A1 0.000138196
14 *5096:DIODE *83:22 0.00154269
15 *5096:DIODE *160:12 0
16 *5096:DIODE *167:159 0
17 *5187:A *5223:A 4.57845e-05
18 *5187:A *103:22 2.46089e-05
19 *5187:A *160:12 9.57632e-05
20 *82:8 *167:121 2.93678e-05
21 *82:8 *167:128 6.69608e-06
22 spine_bot_ow[10] spine_bot_ow[11] 0.000390522
23 *5186:A *5187:A 6.74079e-05
24 *81:26 *5096:DIODE 0
25 *81:26 *5187:A 3.67779e-05
*RES
1 *4914:Z *82:8 4.05 
2 *82:8 spine_bot_ow[11] 2.75923 
3 *82:8 *5096:DIODE 49.305 
4 *5096:DIODE *5187:A 12.105 
*END

*D_NET *83 0.00798073
*CONN
*P spine_bot_ow[12] I
*I *5188:A I *D sky130_fd_sc_hd__inv_2
*I *5097:DIODE I *D sky130_fd_sc_hd__diode_2
*I *4915:Z O *D sky130_fd_sc_hd__ebufn_1
*CAP
1 spine_bot_ow[12] 0.00029471
2 *5188:A 0.000422661
3 *5097:DIODE 4.43379e-05
4 *4915:Z 0
5 *83:22 0.00248256
6 *83:6 0.00231027
7 spine_bot_ow[12] spine_bot_ow[13] 0.000391552
8 spine_bot_ow[12] spine_bot_ow[7] 0
9 spine_bot_ow[12] *4915:TE_B 8.66976e-06
10 *5188:A *5189:A 0
11 *5188:A *84:22 0
12 *5188:A *160:12 0
13 *83:22 *4915:TE_B 1.73877e-05
14 *83:22 *5234:A0 6.47594e-05
15 *83:22 *84:22 0
16 *83:22 *160:12 0
17 spine_bot_ow[11] spine_bot_ow[12] 0.000394972
18 *5096:DIODE spine_bot_ow[12] 6.16226e-06
19 *5096:DIODE *83:22 0.00154269
*RES
1 *4915:Z *83:6 3.6 
2 *83:6 spine_bot_ow[12] 2.6765 
3 *83:6 *83:22 44.985 
4 *83:22 *5097:DIODE 4.05 
5 *83:22 *5188:A 10.38 
*END

*D_NET *84 0.00814742
*CONN
*P spine_bot_ow[13] I
*I *5189:A I *D sky130_fd_sc_hd__inv_2
*I *5098:DIODE I *D sky130_fd_sc_hd__diode_2
*I *4916:Z O *D sky130_fd_sc_hd__ebufn_1
*CAP
1 spine_bot_ow[13] 0.00028192
2 *5189:A 0.000404776
3 *5098:DIODE 7.56888e-05
4 *4916:Z 0
5 *84:22 0.00336793
6 *84:6 0.00316939
7 spine_bot_ow[13] spine_bot_ow[14] 0.000391552
8 spine_bot_ow[13] *4915:TE_B 1.54862e-05
9 spine_bot_ow[13] *85:22 0
10 *5189:A *5171:A0 0
11 *84:22 *4915:TE_B 4.91189e-05
12 *84:22 *5171:A0 0
13 *84:22 *5190:A 0
14 *84:22 *85:22 0
15 spine_bot_ow[12] spine_bot_ow[13] 0.000391552
16 *5188:A *5189:A 0
17 *5188:A *84:22 0
18 *83:22 *84:22 0
*RES
1 *4916:Z *84:6 3.6 
2 *84:6 spine_bot_ow[13] 2.8175 
3 *84:6 *84:22 47.79 
4 *84:22 *5098:DIODE 4.395 
5 *84:22 *5189:A 10.125 
*END

*D_NET *85 0.00794622
*CONN
*P spine_bot_ow[14] I
*I *5190:A I *D sky130_fd_sc_hd__inv_2
*I *5099:DIODE I *D sky130_fd_sc_hd__diode_2
*I *4917:Z O *D sky130_fd_sc_hd__ebufn_1
*CAP
1 spine_bot_ow[14] 0.000441267
2 *5190:A 0.000217283
3 *5099:DIODE 2.56208e-05
4 *4917:Z 0
5 *85:22 0.00275373
6 *85:6 0.0029521
7 spine_bot_ow[14] spine_bot_ow[15] 0.000264128
8 spine_bot_ow[14] spine_bot_ow[17] 0
9 spine_bot_ow[14] *5242:A 4.36438e-05
10 *5099:DIODE *5171:A0 1.83847e-05
11 *5190:A *5162:A 0
12 *5190:A *5171:A0 0.000296775
13 *5190:A *5200:A0 3.64998e-06
14 *85:22 *5102:DIODE 0
15 *85:22 *5155:A 0.000122465
16 *85:22 *5242:A 0.000415624
17 *85:22 *89:22 0
18 spine_bot_ow[13] spine_bot_ow[14] 0.000391552
19 spine_bot_ow[13] *85:22 0
20 *84:22 *5190:A 0
21 *84:22 *85:22 0
*RES
1 *4917:Z *85:6 3.6 
2 *85:6 spine_bot_ow[14] 3.05057 
3 *85:6 *85:22 44.22 
4 *85:22 *5099:DIODE 4.05 
5 *85:22 *5190:A 8.235 
*END

*D_NET *86 0.0107136
*CONN
*P spine_bot_ow[15] I
*I *5191:A I *D sky130_fd_sc_hd__inv_2
*I *5100:DIODE I *D sky130_fd_sc_hd__diode_2
*I *4918:Z O *D sky130_fd_sc_hd__ebufn_1
*CAP
1 spine_bot_ow[15] 0.00078286
2 *5191:A 0.000306866
3 *5100:DIODE 0.000203004
4 *4918:Z 0
5 *86:22 0.00297438
6 *86:6 0.00324737
7 spine_bot_ow[15] spine_bot_ow[16] 0.000926589
8 spine_bot_ow[15] spine_bot_ow[17] 2.05233e-05
9 spine_bot_ow[15] spine_bot_ow[19] 6.83077e-06
10 spine_bot_ow[15] *4918:TE_B 0
11 spine_bot_ow[15] *87:22 0
12 spine_bot_ow[15] *167:75 0
13 *5100:DIODE *5101:DIODE 0.0001249
14 *5100:DIODE *5104:DIODE 8.49205e-05
15 *5191:A *5163:A 0
16 *5191:A *5165:A 0
17 *5191:A *5175:S 4.82863e-05
18 *5191:A *5192:A 0
19 *86:22 spine_bot_ow[19] 0
20 *86:22 spine_bot_ow[20] 8.66976e-06
21 *86:22 *5165:A 0
22 *86:22 *87:22 0
23 *86:22 *90:24 0
24 *86:22 *92:26 0.00171428
25 *86:22 *93:22 0
26 *86:22 *167:39 0
27 *86:22 *167:75 0
28 spine_bot_ow[14] spine_bot_ow[15] 0.000264128
29 *4:13 spine_bot_ow[15] 0
*RES
1 *4918:Z *86:6 3.6 
2 *86:6 spine_bot_ow[15] 3.61043 
3 *86:6 *86:22 52.635 
4 *86:22 *5100:DIODE 7.155 
5 *86:22 *5191:A 8.745 
*END

*D_NET *87 0.0113853
*CONN
*P spine_bot_ow[16] I
*I *5192:A I *D sky130_fd_sc_hd__inv_2
*I *5101:DIODE I *D sky130_fd_sc_hd__diode_2
*I *4919:Z O *D sky130_fd_sc_hd__ebufn_1
*CAP
1 spine_bot_ow[16] 0.000753059
2 *5192:A 0.000272509
3 *5101:DIODE 0.000323946
4 *4919:Z 0
5 *87:22 0.00219278
6 *87:6 0.00234938
7 spine_bot_ow[16] spine_bot_ow[17] 0.000220039
8 spine_bot_ow[16] spine_bot_ow[21] 0
9 spine_bot_ow[16] spine_bot_ow[22] 0.000131473
10 spine_bot_ow[16] spine_bot_ow[23] 0
11 *5101:DIODE *5165:A 4.80182e-05
12 *5192:A *5165:A 3.05238e-05
13 *5192:A *5166:A 2.84137e-05
14 *5192:A *5175:A0 0
15 *5192:A *5175:S 8.65905e-05
16 *5192:A *5202:A0 0
17 *5192:A *5208:A 0.000188226
18 *87:22 spine_bot_ow[21] 8.66976e-06
19 *87:22 spine_bot_ow[22] 8.39681e-05
20 *87:22 *5165:A 0.000148769
21 *87:22 *5166:A 0.000155048
22 *87:22 *93:22 0.00164476
23 *87:22 *94:22 0.00166763
24 *87:22 *167:39 0
25 spine_bot_ow[15] spine_bot_ow[16] 0.000926589
26 spine_bot_ow[15] *87:22 0
27 *5100:DIODE *5101:DIODE 0.0001249
28 *5191:A *5192:A 0
29 *4:13 spine_bot_ow[16] 0
30 *86:22 *87:22 0
*RES
1 *4919:Z *87:6 3.6 
2 *87:6 spine_bot_ow[16] 4.26737 
3 *87:6 *87:22 52.38 
4 *87:22 *5101:DIODE 7.5 
5 *87:22 *5192:A 9.345 
*END

*D_NET *88 0.00743654
*CONN
*P spine_bot_ow[17] I
*I *5155:A I *D sky130_fd_sc_hd__buf_2
*I *5102:DIODE I *D sky130_fd_sc_hd__diode_2
*I *4920:Z O *D sky130_fd_sc_hd__ebufn_1
*CAP
1 spine_bot_ow[17] 0.000368332
2 *5155:A 0.000231869
3 *5102:DIODE 0.00200627
4 *4920:Z 0
5 *88:6 0.00214273
6 spine_bot_ow[17] spine_bot_ow[18] 0.00038262
7 spine_bot_ow[17] *5242:A 0
8 spine_bot_ow[17] *166:88 0
9 *5102:DIODE spine_bot_ow[18] 9.58678e-06
10 *5102:DIODE *5242:A 0
11 *5102:DIODE *89:22 0.00193211
12 *5102:DIODE *166:88 0
13 *5155:A *5162:A 0
14 *5155:A *89:22 0
15 spine_bot_ow[14] spine_bot_ow[17] 0
16 spine_bot_ow[15] spine_bot_ow[17] 2.05233e-05
17 spine_bot_ow[16] spine_bot_ow[17] 0.000220039
18 *85:22 *5102:DIODE 0
19 *85:22 *5155:A 0.000122465
*RES
1 *4920:Z *88:6 3.6 
2 *88:6 spine_bot_ow[17] 2.8175 
3 *88:6 *5102:DIODE 44.025 
4 *5102:DIODE *5155:A 11.415 
*END

*D_NET *89 0.00780479
*CONN
*P spine_bot_ow[18] I
*I *5162:A I *D sky130_fd_sc_hd__buf_2
*I *5103:DIODE I *D sky130_fd_sc_hd__diode_2
*I *4921:Z O *D sky130_fd_sc_hd__ebufn_1
*CAP
1 spine_bot_ow[18] 0.00031802
2 *5162:A 0.000304135
3 *5103:DIODE 0
4 *4921:Z 0
5 *89:22 0.00221583
6 *89:6 0.00222971
7 spine_bot_ow[18] spine_bot_ow[19] 0.000377135
8 spine_bot_ow[18] spine_bot_ow[20] 1.16775e-05
9 spine_bot_ow[18] *166:88 8.66976e-06
10 *5162:A *90:24 0
11 *89:22 *90:24 0
12 *89:22 *166:88 1.52945e-05
13 spine_bot_ow[17] spine_bot_ow[18] 0.00038262
14 *5102:DIODE spine_bot_ow[18] 9.58678e-06
15 *5102:DIODE *89:22 0.00193211
16 *5155:A *5162:A 0
17 *5155:A *89:22 0
18 *5190:A *5162:A 0
19 *85:22 *89:22 0
*RES
1 *4921:Z *89:6 3.6 
2 *89:6 spine_bot_ow[18] 2.6765 
3 *89:6 *89:22 43.455 
4 *89:22 *5103:DIODE 3.6 
5 *89:22 *5162:A 8.58 
*END

*D_NET *90 0.00902199
*CONN
*P spine_bot_ow[19] I
*I *5163:A I *D sky130_fd_sc_hd__buf_2
*I *5104:DIODE I *D sky130_fd_sc_hd__diode_2
*I *4922:Z O *D sky130_fd_sc_hd__ebufn_1
*CAP
1 spine_bot_ow[19] 0.000314388
2 *5163:A 0.000353547
3 *5104:DIODE 6.05552e-05
4 *4922:Z 3.46027e-05
5 *90:24 0.00265357
6 *90:8 0.00258846
7 spine_bot_ow[19] spine_bot_ow[20] 0.000381589
8 spine_bot_ow[19] *166:88 2.04591e-05
9 *5163:A *5164:A 0.000130065
10 *5163:A *5175:S 0.000161529
11 *5163:A *5200:S 0
12 *90:8 *167:62 2.93678e-05
13 *90:8 *167:69 6.69608e-06
14 *90:24 spine_bot_ow[20] 6.16226e-06
15 *90:24 *5164:A 3.67779e-05
16 *90:24 *92:26 0.00171434
17 *90:24 *166:88 6.10014e-05
18 spine_bot_ow[15] spine_bot_ow[19] 6.83077e-06
19 spine_bot_ow[18] spine_bot_ow[19] 0.000377135
20 *5100:DIODE *5104:DIODE 8.49205e-05
21 *5162:A *90:24 0
22 *5191:A *5163:A 0
23 *86:22 spine_bot_ow[19] 0
24 *86:22 *90:24 0
25 *89:22 *90:24 0
*RES
1 *4922:Z *90:8 4.05 
2 *90:8 spine_bot_ow[19] 2.75923 
3 *90:8 *90:24 49.83 
4 *90:24 *5104:DIODE 4.395 
5 *90:24 *5163:A 10.38 
*END

*D_NET *91 0.0097611
*CONN
*P spine_bot_ow[1] I
*I *5211:A I *D sky130_fd_sc_hd__inv_2
*I *5105:DIODE I *D sky130_fd_sc_hd__diode_2
*I *4913:Z O *D sky130_fd_sc_hd__ebufn_1
*CAP
1 spine_bot_ow[1] 0.000602751
2 *5211:A 0.000207561
3 *5105:DIODE 4.43379e-05
4 *4913:Z 0
5 *91:22 0.00212356
6 *91:6 0.00247441
7 spine_bot_ow[1] spine_bot_ow[2] 0.000457612
8 spine_bot_ow[1] spine_bot_ow[3] 0
9 *5211:A *5227:A0 9.66106e-05
10 *5211:A *98:26 0.000142492
11 *91:22 spine_bot_ow[2] 1.88656e-05
12 *91:22 *5091:B 0
13 *91:22 *98:24 0.00152504
14 *91:22 *98:26 0.0014794
15 *91:22 *162:12 0.000480031
16 *4910:A spine_bot_ow[1] 0
17 *4910:A *91:22 0
18 *5094:DIODE spine_bot_ow[1] 0.000108428
*RES
1 *4913:Z *91:6 3.6 
2 *91:6 spine_bot_ow[1] 3.10883 
3 *91:6 *91:22 47.79 
4 *91:22 *5105:DIODE 4.05 
5 *91:22 *5211:A 8.34 
*END

*D_NET *92 0.00837988
*CONN
*P spine_bot_ow[20] I
*I *5164:A I *D sky130_fd_sc_hd__buf_2
*I *5106:DIODE I *D sky130_fd_sc_hd__diode_2
*I *4923:Z O *D sky130_fd_sc_hd__ebufn_1
*CAP
1 spine_bot_ow[20] 0.000291702
2 *5164:A 0.000237412
3 *5106:DIODE 0.000237412
4 *4923:Z 0
5 *92:26 0.00143638
6 *92:6 0.00172808
7 spine_bot_ow[20] spine_bot_ow[21] 0.000439802
8 *5164:A *5172:A0 0
9 *5164:A *5200:S 5.53249e-06
10 spine_bot_ow[18] spine_bot_ow[20] 1.16775e-05
11 spine_bot_ow[19] spine_bot_ow[20] 0.000381589
12 *5163:A *5164:A 0.000130065
13 *86:22 spine_bot_ow[20] 8.66976e-06
14 *86:22 *92:26 0.00171428
15 *90:24 spine_bot_ow[20] 6.16226e-06
16 *90:24 *5164:A 3.67779e-05
17 *90:24 *92:26 0.00171434
*RES
1 *4923:Z *92:6 3.6 
2 *92:6 spine_bot_ow[20] 2.6765 
3 *92:6 *92:26 49.82 
4 *92:26 *5106:DIODE 1.6 
5 *5106:DIODE *5164:A 11.415 
*END

*D_NET *93 0.00829467
*CONN
*P spine_bot_ow[21] I
*I *5165:A I *D sky130_fd_sc_hd__buf_2
*I *5107:DIODE I *D sky130_fd_sc_hd__diode_2
*I *4925:Z O *D sky130_fd_sc_hd__ebufn_1
*CAP
1 spine_bot_ow[21] 0.000467816
2 *5165:A 0.000311435
3 *5107:DIODE 4.43494e-05
4 *4925:Z 0
5 *93:22 0.00235073
6 *93:6 0.00246276
7 spine_bot_ow[21] spine_bot_ow[22] 0.000243132
8 spine_bot_ow[21] spine_bot_ow[24] 0
9 spine_bot_ow[21] *167:39 1.88656e-05
10 *93:22 *167:39 7.50427e-05
11 spine_bot_ow[16] spine_bot_ow[21] 0
12 spine_bot_ow[20] spine_bot_ow[21] 0.000439802
13 *5101:DIODE *5165:A 4.80182e-05
14 *5191:A *5165:A 0
15 *5192:A *5165:A 3.05238e-05
16 *86:22 *5165:A 0
17 *86:22 *93:22 0
18 *87:22 spine_bot_ow[21] 8.66976e-06
19 *87:22 *5165:A 0.000148769
20 *87:22 *93:22 0.00164476
*RES
1 *4925:Z *93:6 3.6 
2 *93:6 spine_bot_ow[21] 2.8513 
3 *93:6 *93:22 44.985 
4 *93:22 *5107:DIODE 4.05 
5 *93:22 *5165:A 10.035 
*END

*D_NET *94 0.00847944
*CONN
*P spine_bot_ow[22] I
*I *5166:A I *D sky130_fd_sc_hd__buf_2
*I *5108:DIODE I *D sky130_fd_sc_hd__diode_2
*I *4926:Z O *D sky130_fd_sc_hd__ebufn_1
*CAP
1 spine_bot_ow[22] 0.00045444
2 *5166:A 0.000310923
3 *5108:DIODE 0
4 *4926:Z 0
5 *94:22 0.00235006
6 *94:6 0.00249358
7 spine_bot_ow[22] spine_bot_ow[23] 0.00029869
8 spine_bot_ow[22] spine_bot_ow[24] 6.23121e-06
9 spine_bot_ow[22] *95:22 0
10 spine_bot_ow[22] *167:19 3.05373e-05
11 *5166:A *5110:DIODE 2.75145e-05
12 *5166:A *5167:A 4.82863e-05
13 *5166:A *5175:A0 9.66021e-05
14 *94:22 *95:22 0
15 *94:22 *167:19 5.2912e-05
16 spine_bot_ow[16] spine_bot_ow[22] 0.000131473
17 spine_bot_ow[21] spine_bot_ow[22] 0.000243132
18 *5192:A *5166:A 2.84137e-05
19 *4:13 spine_bot_ow[22] 0
20 *87:22 spine_bot_ow[22] 8.39681e-05
21 *87:22 *5166:A 0.000155048
22 *87:22 *94:22 0.00166763
*RES
1 *4926:Z *94:6 3.6 
2 *94:6 spine_bot_ow[22] 5.1699 
3 *94:6 *94:22 45.75 
4 *94:22 *5108:DIODE 3.6 
5 *94:22 *5166:A 10.725 
*END

*D_NET *95 0.00835037
*CONN
*P spine_bot_ow[23] I
*I *5167:A I *D sky130_fd_sc_hd__buf_2
*I *5109:DIODE I *D sky130_fd_sc_hd__diode_2
*I *4927:Z O *D sky130_fd_sc_hd__ebufn_1
*CAP
1 spine_bot_ow[23] 0.000368056
2 *5167:A 0.000420728
3 *5109:DIODE 7.56888e-05
4 *4927:Z 0
5 *95:22 0.00334235
6 *95:6 0.00321398
7 spine_bot_ow[23] spine_bot_ow[24] 0.000220039
8 spine_bot_ow[23] *5111:DIODE 2.05641e-05
9 *5167:A *5110:DIODE 4.58257e-05
10 *5167:A *5168:A 0
11 *5167:A *5176:A0 9.52367e-05
12 *5167:A *96:8 0
13 *95:22 spine_bot_ow[24] 1.88656e-05
14 *95:22 *96:8 0
15 *95:22 *166:117 0.000182062
16 spine_bot_ow[16] spine_bot_ow[23] 0
17 spine_bot_ow[22] spine_bot_ow[23] 0.00029869
18 spine_bot_ow[22] *95:22 0
19 *5166:A *5167:A 4.82863e-05
20 *4:13 spine_bot_ow[23] 0
21 *94:22 *95:22 0
*RES
1 *4927:Z *95:6 3.6 
2 *95:6 spine_bot_ow[23] 3.61203 
3 *95:6 *95:22 47.79 
4 *95:22 *5109:DIODE 4.395 
5 *95:22 *5167:A 10.995 
*END

*D_NET *96 0.00888805
*CONN
*P spine_bot_ow[24] I
*I *5168:A I *D sky130_fd_sc_hd__buf_2
*I *5110:DIODE I *D sky130_fd_sc_hd__diode_2
*I *4928:Z O *D sky130_fd_sc_hd__ebufn_1
*CAP
1 spine_bot_ow[24] 0.00073386
2 *5168:A 0.000155649
3 *5110:DIODE 8.7704e-05
4 *4928:Z 0.00073386
5 *96:8 0.0023222
6 *96:6 0.00207885
7 spine_bot_ow[24] *5111:DIODE 0.000105008
8 *5168:A *5175:A0 0
9 spine_bot_ow[21] spine_bot_ow[24] 0
10 spine_bot_ow[22] spine_bot_ow[24] 6.23121e-06
11 spine_bot_ow[23] spine_bot_ow[24] 0.000220039
12 *5166:A *5110:DIODE 2.75145e-05
13 *5167:A *5110:DIODE 4.58257e-05
14 *5167:A *5168:A 0
15 *5167:A *96:8 0
16 *23:15 *5168:A 0.000110307
17 *23:15 *96:8 0.00219718
18 *24:54 *96:8 4.49498e-05
19 *95:22 spine_bot_ow[24] 1.88656e-05
20 *95:22 *96:8 0
*RES
1 *4928:Z *96:6 3.6 
2 *96:6 *96:8 48.045 
3 *96:8 *5110:DIODE 5.085 
4 *96:8 *5168:A 6.45 
5 *4928:Z spine_bot_ow[24] 6.4513 
*END

*D_NET *97 0.00067181
*CONN
*P spine_bot_ow[25] I
*I *5111:DIODE I *D sky130_fd_sc_hd__diode_2
*CAP
1 spine_bot_ow[25] 0.000265832
2 *5111:DIODE 0.000265832
3 spine_bot_ow[23] *5111:DIODE 2.05641e-05
4 spine_bot_ow[24] *5111:DIODE 0.000105008
5 *4:13 *5111:DIODE 1.45731e-05
*RES
1 spine_bot_ow[25] *5111:DIODE 7.2829 
*END

*D_NET *98 0.0126581
*CONN
*P spine_bot_ow[2] I
*I *5218:A I *D sky130_fd_sc_hd__inv_2
*I *5116:DIODE I *D sky130_fd_sc_hd__diode_2
*I *4924:Z O *D sky130_fd_sc_hd__ebufn_1
*CAP
1 spine_bot_ow[2] 0.000341293
2 *5218:A 0.000193299
3 *5116:DIODE 0.000106168
4 *4924:Z 0
5 *98:26 0.0010613
6 *98:24 0.00120785
7 *98:6 0.000787309
8 spine_bot_ow[2] spine_bot_ow[3] 0.000395489
9 spine_bot_ow[2] spine_bot_ow[7] 0
10 spine_bot_ow[2] *99:24 8.66976e-06
11 *5116:DIODE *5227:S 8.65961e-05
12 *5218:A *4939:A 0.0001249
13 *5218:A *5195:A0 7.21296e-06
14 *5218:A *5225:A 0
15 *5218:A *5227:A1 7.4027e-05
16 *5218:A *170:10 0
17 *5218:A *238:25 2.14129e-05
18 *5218:A *238:80 0.000312792
19 *5218:A *238:105 0.0001249
20 *98:24 *99:24 0.000515454
21 *98:24 *238:25 0.000140229
22 *98:26 *5227:A0 0.000300109
23 *98:26 *238:25 0.0032257
24 spine_bot_ow[1] spine_bot_ow[2] 0.000457612
25 *5211:A *98:26 0.000142492
26 *91:22 spine_bot_ow[2] 1.88656e-05
27 *91:22 *98:24 0.00152504
28 *91:22 *98:26 0.0014794
*RES
1 *4924:Z *98:6 3.6 
2 *98:6 spine_bot_ow[2] 2.8513 
3 *98:6 *98:24 17.8875 
4 *98:24 *98:26 36.5775 
5 *98:26 *5116:DIODE 5.43 
6 *98:26 *5218:A 8.925 
*END

*D_NET *99 0.0109505
*CONN
*P spine_bot_ow[3] I
*I *5219:A I *D sky130_fd_sc_hd__inv_2
*I *5127:DIODE I *D sky130_fd_sc_hd__diode_2
*I *4929:Z O *D sky130_fd_sc_hd__ebufn_1
*CAP
1 spine_bot_ow[3] 0.000301857
2 *5219:A 0.000207661
3 *5127:DIODE 0
4 *4929:Z 0.000122977
5 *99:24 0.00208226
6 *99:8 0.00229943
7 spine_bot_ow[3] spine_bot_ow[4] 0.000277552
8 spine_bot_ow[3] spine_bot_ow[5] 2.44777e-05
9 spine_bot_ow[3] *166:14 2.32724e-05
10 *5219:A *5195:A0 0.00047601
11 *5219:A *5220:A 0
12 *5219:A *5229:A0 2.49909e-05
13 *5219:A *238:25 0.00046
14 *5219:A *238:80 0.000131408
15 *99:8 *4913:TE_B 2.75229e-05
16 *99:8 *166:18 1.12578e-05
17 *99:8 *167:191 2.75145e-05
18 *99:24 *5220:A 0
19 *99:24 *5234:S 0.000343738
20 *99:24 *100:10 0
21 *99:24 *166:10 8.71001e-05
22 *99:24 *166:14 5.84456e-05
23 *99:24 *238:25 0.00304344
24 spine_bot_ow[1] spine_bot_ow[3] 0
25 spine_bot_ow[2] spine_bot_ow[3] 0.000395489
26 spine_bot_ow[2] *99:24 8.66976e-06
27 *98:24 *99:24 0.000515454
*RES
1 *4929:Z *99:8 5.085 
2 *99:8 spine_bot_ow[3] 2.87577 
3 *99:8 *99:24 49.83 
4 *99:24 *5127:DIODE 3.6 
5 *99:24 *5219:A 11.13 
*END

*D_NET *100 0.00795158
*CONN
*P spine_bot_ow[4] I
*I *5220:A I *D sky130_fd_sc_hd__inv_2
*I *5138:DIODE I *D sky130_fd_sc_hd__diode_2
*I *4930:Z O *D sky130_fd_sc_hd__ebufn_1
*CAP
1 spine_bot_ow[4] 0.000206937
2 *5220:A 0.000273923
3 *5138:DIODE 0
4 *4930:Z 0
5 *100:10 0.00305937
6 *100:8 0.00285999
7 *100:4 0.000281476
8 spine_bot_ow[4] spine_bot_ow[5] 0.000282006
9 spine_bot_ow[4] *166:183 0
10 *5220:A *5195:A0 0
11 *5220:A *5196:A0 4.91189e-05
12 *5220:A *5221:A 0
13 *5220:A *101:22 0
14 *100:10 spine_bot_ow[5] 0
15 *100:10 *5234:S 0.000471626
16 *100:10 *101:22 0
17 *100:10 *166:10 5.84989e-05
18 *100:10 *166:183 4.70343e-05
19 *100:10 *167:199 8.40439e-05
20 spine_bot_ow[3] spine_bot_ow[4] 0.000277552
21 *5219:A *5220:A 0
22 *4:13 spine_bot_ow[4] 0
23 *99:24 *5220:A 0
24 *99:24 *100:10 0
*RES
1 *4930:Z *100:4 1.6 
2 *100:4 *100:8 2.795 
3 *100:8 *100:10 49.83 
4 *100:10 *5138:DIODE 3.6 
5 *100:10 *5220:A 8.295 
6 *100:4 spine_bot_ow[4] 4.47297 
*END

*D_NET *101 0.0104621
*CONN
*P spine_bot_ow[5] I
*I *5221:A I *D sky130_fd_sc_hd__inv_2
*I *5141:DIODE I *D sky130_fd_sc_hd__diode_2
*I *4931:Z O *D sky130_fd_sc_hd__ebufn_1
*CAP
1 spine_bot_ow[5] 0.000505223
2 *5221:A 0.000157172
3 *5141:DIODE 3.58834e-05
4 *4931:Z 0
5 *101:22 0.00218302
6 *101:6 0.00249519
7 spine_bot_ow[5] spine_bot_ow[6] 0.000312266
8 spine_bot_ow[5] spine_bot_ow[7] 2.457e-05
9 spine_bot_ow[5] *102:24 2.51475e-05
10 *5141:DIODE *5179:A 2.75229e-05
11 *5221:A *5179:A 4.44927e-05
12 *5221:A *5196:A0 0
13 *5221:A *5222:A 1.1561e-05
14 *5221:A *5233:A0 0
15 *101:22 *5179:A 0.000189426
16 *101:22 *102:24 3.76935e-05
17 *101:22 *105:31 0.00410647
18 spine_bot_ow[3] spine_bot_ow[5] 2.44777e-05
19 spine_bot_ow[4] spine_bot_ow[5] 0.000282006
20 *5220:A *5221:A 0
21 *5220:A *101:22 0
22 *100:10 spine_bot_ow[5] 0
23 *100:10 *101:22 0
*RES
1 *4931:Z *101:6 3.6 
2 *101:6 spine_bot_ow[5] 3.10883 
3 *101:6 *101:22 49.83 
4 *101:22 *5141:DIODE 4.05 
5 *101:22 *5221:A 6.255 
*END

*D_NET *102 0.0103387
*CONN
*P spine_bot_ow[6] I
*I *5222:A I *D sky130_fd_sc_hd__inv_2
*I *5142:DIODE I *D sky130_fd_sc_hd__diode_2
*I *4932:Z O *D sky130_fd_sc_hd__ebufn_1
*CAP
1 spine_bot_ow[6] 0.000343571
2 *5222:A 0.000139001
3 *5142:DIODE 0
4 *4932:Z 3.38622e-05
5 *102:24 0.00212083
6 *102:8 0.00235926
7 spine_bot_ow[6] spine_bot_ow[7] 0.000276522
8 spine_bot_ow[6] spine_bot_ow[9] 1.88358e-05
9 spine_bot_ow[6] *166:183 0
10 *5222:A *5179:A 0.000226082
11 *5222:A *5223:A 0
12 *5222:A *5233:A0 7.70938e-05
13 *5222:A *105:31 9.50342e-06
14 *102:8 *4930:A 2.86975e-05
15 *102:24 spine_bot_ow[9] 8.99287e-05
16 *102:24 *5223:A 0
17 *102:24 *103:22 0
18 *102:24 *105:31 0.00410647
19 *102:24 *166:183 0
20 spine_bot_ow[5] spine_bot_ow[6] 0.000312266
21 spine_bot_ow[5] *102:24 2.51475e-05
22 *5186:A *5222:A 0.000122331
23 *5221:A *5222:A 1.1561e-05
24 *4:13 spine_bot_ow[6] 0
25 *101:22 *102:24 3.76935e-05
*RES
1 *4932:Z *102:8 4.05 
2 *102:8 spine_bot_ow[6] 2.64777 
3 *102:8 *102:24 49.83 
4 *102:24 *5142:DIODE 3.6 
5 *102:24 *5222:A 7.65 
*END

*D_NET *103 0.00764156
*CONN
*P spine_bot_ow[7] I
*I *5223:A I *D sky130_fd_sc_hd__inv_2
*I *5143:DIODE I *D sky130_fd_sc_hd__diode_2
*I *4933:Z O *D sky130_fd_sc_hd__ebufn_1
*CAP
1 spine_bot_ow[7] 0.000572368
2 *5223:A 0.000153557
3 *5143:DIODE 0
4 *4933:Z 0
5 *103:22 0.00281894
6 *103:6 0.00323775
7 spine_bot_ow[7] spine_bot_ow[8] 0.000220039
8 spine_bot_ow[7] spine_bot_ow[9] 2.39028e-05
9 spine_bot_ow[7] *5224:A 8.66976e-06
10 *5223:A *5233:A0 2.11084e-05
11 *103:22 spine_bot_ow[9] 8.7152e-06
12 *103:22 *5224:A 8.4828e-05
13 spine_bot_ow[10] spine_bot_ow[7] 0
14 spine_bot_ow[12] spine_bot_ow[7] 0
15 spine_bot_ow[2] spine_bot_ow[7] 0
16 spine_bot_ow[5] spine_bot_ow[7] 2.457e-05
17 spine_bot_ow[6] spine_bot_ow[7] 0.000276522
18 *5186:A *5223:A 0.000120186
19 *5187:A *5223:A 4.57845e-05
20 *5187:A *103:22 2.46089e-05
21 *5222:A *5223:A 0
22 *81:26 *103:22 0
23 *102:24 *5223:A 0
24 *102:24 *103:22 0
*RES
1 *4933:Z *103:6 3.6 
2 *103:6 spine_bot_ow[7] 2.90957 
3 *103:6 *103:22 44.985 
4 *103:22 *5143:DIODE 3.6 
5 *103:22 *5223:A 7.05 
*END

*D_NET *104 0.00262221
*CONN
*P spine_bot_ow[8] I
*I *5144:DIODE I *D sky130_fd_sc_hd__diode_2
*I *5224:A I *D sky130_fd_sc_hd__inv_2
*I *4934:Z O *D sky130_fd_sc_hd__ebufn_1
*CAP
1 spine_bot_ow[8] 0.000224818
2 *5144:DIODE 0
3 *5224:A 0.000447847
4 *4934:Z 5.99166e-05
5 *104:8 0.000672665
6 *104:6 5.99166e-05
7 spine_bot_ow[8] spine_bot_ow[9] 0.000374654
8 *5224:A spine_bot_ow[9] 0
9 *5224:A *167:134 0
10 *104:6 *4934:TE_B 4.95182e-05
11 spine_bot_ow[10] *5224:A 2.23342e-05
12 spine_bot_ow[7] spine_bot_ow[8] 0.000220039
13 spine_bot_ow[7] *5224:A 8.66976e-06
14 *4:13 spine_bot_ow[8] 0
15 *24:54 *5224:A 0.000237243
16 *81:26 *5224:A 0.000159755
17 *103:22 *5224:A 8.4828e-05
*RES
1 *4934:Z *104:6 2.395 
2 *104:6 *104:8 2 
3 *104:8 spine_bot_ow[8] 2.16223 
4 *104:8 *5224:A 12.51 
5 *104:6 *5144:DIODE 1.6 
*END

*D_NET *105 0.0128489
*CONN
*P spine_bot_ow[9] I
*I *5179:A I *D sky130_fd_sc_hd__inv_2
*I *5145:DIODE I *D sky130_fd_sc_hd__diode_2
*I *4935:Z O *D sky130_fd_sc_hd__ebufn_1
*CAP
1 spine_bot_ow[9] 0.000451738
2 *5179:A 0.000275229
3 *5145:DIODE 0
4 *4935:Z 0.000479237
5 *105:31 0.00113637
6 *105:29 0.000888641
7 *105:29 *4933:TE_B 4.66108e-05
8 spine_bot_ow[10] spine_bot_ow[9] 0.000252276
9 spine_bot_ow[6] spine_bot_ow[9] 1.88358e-05
10 spine_bot_ow[7] spine_bot_ow[9] 2.39028e-05
11 spine_bot_ow[8] spine_bot_ow[9] 0.000374654
12 *5141:DIODE *5179:A 2.75229e-05
13 *5186:A *5179:A 9.2741e-05
14 *5221:A *5179:A 4.44927e-05
15 *5222:A *5179:A 0.000226082
16 *5222:A *105:31 9.50342e-06
17 *5224:A spine_bot_ow[9] 0
18 *101:22 *5179:A 0.000189426
19 *101:22 *105:31 0.00410647
20 *102:24 spine_bot_ow[9] 8.99287e-05
21 *102:24 *105:31 0.00410647
22 *103:22 spine_bot_ow[9] 8.7152e-06
*RES
1 *4935:Z spine_bot_ow[9] 9.47663 
2 *4935:Z *105:29 4.05 
3 *105:29 *105:31 46.77 
4 *105:31 *5145:DIODE 3.6 
5 *105:31 *5179:A 10.17 
*END

*D_NET *106 0.000429252
*CONN
*P spine_top_iw[0] O
*I *5058:LO O *D sky130_fd_sc_hd__conb_1
*CAP
1 spine_top_iw[0] 0.000170254
2 *5058:LO 0.000170254
3 spine_top_iw[0] spine_top_iw[1] 8.2946e-05
4 spine_top_iw[0] spine_top_iw[2] 5.79828e-06
5 pad_uio_out[4] spine_top_iw[0] 0
6 *5031:A spine_top_iw[0] 0
7 *22:11 spine_top_iw[0] 0
*RES
1 *5058:LO spine_top_iw[0] 5.30117 
*END

*D_NET *107 0.00215135
*CONN
*P spine_top_iw[10] O
*I *5057:X O *D sky130_fd_sc_hd__buf_8
*CAP
1 spine_top_iw[10] 0.000794011
2 *5057:X 0.000794011
3 spine_top_iw[10] spine_top_iw[11] 0.000287467
4 spine_top_iw[10] spine_top_iw[13] 0
5 spine_top_iw[10] spine_top_iw[14] 0
6 spine_top_iw[10] spine_top_iw[8] 5.60493e-05
7 spine_top_iw[10] spine_top_iw[9] 5.19453e-05
8 spine_top_iw[10] *5056:A 7.63125e-05
9 *5015:A spine_top_iw[10] 4.41872e-05
10 *5031:A spine_top_iw[10] 4.7371e-05
*RES
1 *5057:X spine_top_iw[10] 12.7891 
*END

*D_NET *108 0.00188225
*CONN
*P spine_top_iw[11] O
*I *5014:X O *D sky130_fd_sc_hd__buf_8
*CAP
1 spine_top_iw[11] 0.000629694
2 *5014:X 0.000629694
3 spine_top_iw[11] spine_top_iw[12] 2.43986e-05
4 spine_top_iw[11] spine_top_iw[13] 5.07694e-05
5 spine_top_iw[11] spine_top_iw[9] 0
6 spine_top_iw[11] *5012:A 4.18147e-05
7 spine_top_iw[10] spine_top_iw[11] 0.000287467
8 *5031:A spine_top_iw[11] 0.000218408
*RES
1 *5014:X spine_top_iw[11] 7.0939 
*END

*D_NET *109 0.00110336
*CONN
*P spine_top_iw[12] O
*I *5016:X O *D sky130_fd_sc_hd__buf_8
*CAP
1 spine_top_iw[12] 0.00052506
2 *5016:X 0.00052506
3 spine_top_iw[12] spine_top_iw[13] 2.88432e-05
4 spine_top_iw[12] spine_top_iw[9] 0
5 spine_top_iw[11] spine_top_iw[12] 2.43986e-05
*RES
1 *5016:X spine_top_iw[12] 9.3339 
*END

*D_NET *110 0.00291834
*CONN
*P spine_top_iw[13] O
*I *5018:X O *D sky130_fd_sc_hd__buf_8
*CAP
1 spine_top_iw[13] 0.00087745
2 *5018:X 0.00087745
3 spine_top_iw[13] spine_top_iw[14] 0.000762183
4 spine_top_iw[13] spine_top_iw[15] 0
5 spine_top_iw[13] spine_top_iw[8] 0
6 spine_top_iw[13] *5147:A 0.000163067
7 spine_top_iw[13] *5148:A 0.000158577
8 spine_top_iw[10] spine_top_iw[13] 0
9 spine_top_iw[11] spine_top_iw[13] 5.07694e-05
10 spine_top_iw[12] spine_top_iw[13] 2.88432e-05
*RES
1 *5018:X spine_top_iw[13] 14.4424 
*END

*D_NET *111 0.00370624
*CONN
*P spine_top_iw[14] O
*I *5020:X O *D sky130_fd_sc_hd__buf_8
*CAP
1 spine_top_iw[14] 0.000933392
2 *5020:X 0.000933392
3 spine_top_iw[14] spine_top_iw[15] 0.000560435
4 spine_top_iw[14] *5020:A 0
5 spine_top_iw[14] *5056:A 0.000291162
6 spine_top_iw[10] spine_top_iw[14] 0
7 spine_top_iw[13] spine_top_iw[14] 0.000762183
8 *5035:A spine_top_iw[14] 0.000225678
*RES
1 *5020:X spine_top_iw[14] 15.6466 
*END

*D_NET *112 0.00310799
*CONN
*P spine_top_iw[15] O
*I *5022:X O *D sky130_fd_sc_hd__buf_8
*CAP
1 spine_top_iw[15] 0.000696585
2 *5022:X 0.000696585
3 spine_top_iw[15] spine_top_iw[16] 0.00053322
4 spine_top_iw[15] *203:108 0.000529046
5 spine_top_iw[15] *203:110 5.39961e-05
6 spine_top_iw[13] spine_top_iw[15] 0
7 spine_top_iw[14] spine_top_iw[15] 0.000560435
8 *5035:A spine_top_iw[15] 3.81195e-05
*RES
1 *5022:X spine_top_iw[15] 13.1404 
*END

*D_NET *113 0.00331803
*CONN
*P spine_top_iw[16] O
*I *5024:X O *D sky130_fd_sc_hd__buf_8
*CAP
1 spine_top_iw[16] 0.000970956
2 *5024:X 0.000970956
3 spine_top_iw[16] spine_top_iw[17] 0.000295517
4 spine_top_iw[16] spine_top_iw[19] 0
5 spine_top_iw[16] *5022:A 0.000111316
6 spine_top_iw[16] *5024:A 0
7 spine_top_iw[16] *5026:A 0
8 spine_top_iw[16] *203:108 0.000228632
9 spine_top_iw[16] *203:110 8.08153e-06
10 spine_top_iw[15] spine_top_iw[16] 0.00053322
11 *5027:A spine_top_iw[16] 0.000120655
12 *5035:A spine_top_iw[16] 7.86939e-05
*RES
1 *5024:X spine_top_iw[16] 16.7443 
*END

*D_NET *114 0.002094
*CONN
*P spine_top_iw[17] O
*I *5026:X O *D sky130_fd_sc_hd__buf_8
*CAP
1 spine_top_iw[17] 0.000697115
2 *5026:X 0.000697115
3 spine_top_iw[17] spine_top_iw[18] 0.000295517
4 spine_top_iw[17] spine_top_iw[22] 1.8608e-05
5 spine_top_iw[17] *5026:A 1.89685e-05
6 spine_top_iw[17] *5034:A 0
7 spine_top_iw[17] *5036:A 6.24871e-05
8 spine_top_iw[17] *5148:A 0
9 spine_top_iw[17] *203:108 0
10 spine_top_iw[16] spine_top_iw[17] 0.000295517
11 *5033:A spine_top_iw[17] 8.66976e-06
*RES
1 *5026:X spine_top_iw[17] 13.2408 
*END

*D_NET *115 0.00239189
*CONN
*P spine_top_iw[18] O
*I *5028:X O *D sky130_fd_sc_hd__buf_8
*CAP
1 spine_top_iw[18] 0.000707129
2 *5028:X 0.000707129
3 spine_top_iw[18] spine_top_iw[19] 0.000299508
4 spine_top_iw[18] spine_top_iw[22] 1.8608e-05
5 spine_top_iw[18] *5026:A 0.000105068
6 spine_top_iw[18] *5036:A 2.09442e-05
7 spine_top_iw[18] *5038:A 0
8 spine_top_iw[18] *5148:A 0
9 spine_top_iw[18] *203:86 1.1561e-05
10 spine_top_iw[17] spine_top_iw[18] 0.000295517
11 *5035:A spine_top_iw[18] 0.000226427
*RES
1 *5028:X spine_top_iw[18] 15.0258 
*END

*D_NET *116 0.00287073
*CONN
*P spine_top_iw[19] O
*I *5030:X O *D sky130_fd_sc_hd__buf_8
*CAP
1 spine_top_iw[19] 0.00106722
2 *5030:X 0.00106722
3 spine_top_iw[19] spine_top_iw[20] 0.000139429
4 spine_top_iw[19] spine_top_iw[21] 1.79088e-05
5 spine_top_iw[19] spine_top_iw[22] 0
6 spine_top_iw[19] spine_top_iw[24] 0
7 spine_top_iw[19] *5026:A 0
8 spine_top_iw[19] *5028:A 0.000189426
9 spine_top_iw[19] *5148:A 4.3249e-05
10 spine_top_iw[19] *281:12 0
11 spine_top_iw[16] spine_top_iw[19] 0
12 spine_top_iw[18] spine_top_iw[19] 0.000299508
13 *5035:A spine_top_iw[19] 4.01953e-05
14 *5037:A spine_top_iw[19] 6.57653e-06
*RES
1 *5030:X spine_top_iw[19] 15.2015 
*END

*D_NET *117 0.000692415
*CONN
*P spine_top_iw[1] O
*I *5012:X O *D sky130_fd_sc_hd__buf_8
*CAP
1 spine_top_iw[1] 0.000263261
2 *5012:X 0.000263261
3 spine_top_iw[1] spine_top_iw[2] 8.2946e-05
4 spine_top_iw[0] spine_top_iw[1] 8.2946e-05
5 *5031:A spine_top_iw[1] 0
*RES
1 *5012:X spine_top_iw[1] 6.40983 
*END

*D_NET *118 0.00201437
*CONN
*P spine_top_iw[20] O
*I *5032:X O *D sky130_fd_sc_hd__buf_8
*CAP
1 spine_top_iw[20] 0.000678006
2 *5032:X 0.000678006
3 spine_top_iw[20] spine_top_iw[21] 0.00051893
4 spine_top_iw[19] spine_top_iw[20] 0.000139429
5 *5033:A spine_top_iw[20] 0
*RES
1 *5032:X spine_top_iw[20] 6.9605 
*END

*D_NET *119 0.00278882
*CONN
*P spine_top_iw[21] O
*I *5034:X O *D sky130_fd_sc_hd__buf_8
*CAP
1 spine_top_iw[21] 0.00061913
2 *5034:X 0.00061913
3 spine_top_iw[21] spine_top_iw[22] 0.000880798
4 spine_top_iw[21] spine_top_iw[23] 4.5387e-05
5 spine_top_iw[21] *5032:A 8.75364e-05
6 spine_top_iw[21] *5034:A 0
7 spine_top_iw[21] *5148:A 0
8 spine_top_iw[19] spine_top_iw[21] 1.79088e-05
9 spine_top_iw[20] spine_top_iw[21] 0.00051893
10 *5033:A spine_top_iw[21] 0
*RES
1 *5034:X spine_top_iw[21] 7.9839 
*END

*D_NET *120 0.00224455
*CONN
*P spine_top_iw[22] O
*I *5036:X O *D sky130_fd_sc_hd__buf_8
*CAP
1 spine_top_iw[22] 0.000494969
2 *5036:X 0.000494969
3 spine_top_iw[22] spine_top_iw[23] 0.000186386
4 spine_top_iw[22] spine_top_iw[24] 0.000132914
5 spine_top_iw[22] *5034:A 0
6 spine_top_iw[22] *5036:A 1.72991e-05
7 spine_top_iw[22] *5148:A 0
8 spine_top_iw[17] spine_top_iw[22] 1.8608e-05
9 spine_top_iw[18] spine_top_iw[22] 1.8608e-05
10 spine_top_iw[19] spine_top_iw[22] 0
11 spine_top_iw[21] spine_top_iw[22] 0.000880798
*RES
1 *5036:X spine_top_iw[22] 7.0939 
*END

*D_NET *121 0.00123246
*CONN
*P spine_top_iw[23] O
*I *5038:X O *D sky130_fd_sc_hd__buf_8
*CAP
1 spine_top_iw[23] 0.000428407
2 *5038:X 0.000428407
3 spine_top_iw[23] spine_top_iw[24] 0.000143874
4 spine_top_iw[21] spine_top_iw[23] 4.5387e-05
5 spine_top_iw[22] spine_top_iw[23] 0.000186386
*RES
1 *5038:X spine_top_iw[23] 7.6967 
*END

*D_NET *122 0.00188577
*CONN
*P spine_top_iw[24] O
*I *5040:X O *D sky130_fd_sc_hd__buf_8
*CAP
1 spine_top_iw[24] 0.000656998
2 *5040:X 0.000656998
3 spine_top_iw[24] spine_top_iw[25] 0.000294984
4 spine_top_iw[24] *5038:A 0
5 spine_top_iw[24] *5040:A 0
6 spine_top_iw[24] *5148:A 0
7 spine_top_iw[24] *203:86 0
8 spine_top_iw[19] spine_top_iw[24] 0
9 spine_top_iw[22] spine_top_iw[24] 0.000132914
10 spine_top_iw[23] spine_top_iw[24] 0.000143874
11 *5037:A spine_top_iw[24] 0
*RES
1 *5040:X spine_top_iw[24] 7.82003 
*END

*D_NET *123 0.00111443
*CONN
*P spine_top_iw[25] O
*I *5042:X O *D sky130_fd_sc_hd__buf_8
*CAP
1 spine_top_iw[25] 0.000333854
2 *5042:X 0.000333854
3 spine_top_iw[25] spine_top_iw[26] 0.000139429
4 spine_top_iw[25] *5042:A 1.23107e-05
5 spine_top_iw[25] *5148:A 0
6 spine_top_iw[24] spine_top_iw[25] 0.000294984
*RES
1 *5042:X spine_top_iw[25] 6.2199 
*END

*D_NET *124 0.000837278
*CONN
*P spine_top_iw[26] O
*I *5044:X O *D sky130_fd_sc_hd__buf_8
*CAP
1 spine_top_iw[26] 0.000274163
2 *5044:X 0.000274163
3 spine_top_iw[26] spine_top_iw[27] 0.000149523
4 spine_top_iw[26] spine_top_iw[28] 0
5 spine_top_iw[26] *5042:A 0
6 spine_top_iw[26] *5044:A 0
7 spine_top_iw[26] *5046:A 0
8 spine_top_iw[25] spine_top_iw[26] 0.000139429
*RES
1 *5044:X spine_top_iw[26] 7.6823 
*END

*D_NET *125 0.000514198
*CONN
*P spine_top_iw[27] O
*I *5046:X O *D sky130_fd_sc_hd__buf_8
*CAP
1 spine_top_iw[27] 0.000112623
2 *5046:X 0.000112623
3 spine_top_iw[27] spine_top_iw[28] 0.000139429
4 spine_top_iw[26] spine_top_iw[27] 0.000149523
*RES
1 *5046:X spine_top_iw[27] 5.32903 
*END

*D_NET *126 0.000909202
*CONN
*P spine_top_iw[28] O
*I *5048:X O *D sky130_fd_sc_hd__buf_8
*CAP
1 spine_top_iw[28] 0.000258492
2 *5048:X 0.000258492
3 spine_top_iw[28] spine_top_iw[29] 0.000111189
4 spine_top_iw[28] *5046:A 0.000141599
5 spine_top_iw[26] spine_top_iw[28] 0
6 spine_top_iw[27] spine_top_iw[28] 0.000139429
*RES
1 *5048:X spine_top_iw[28] 7.23057 
*END

*D_NET *127 0.000406751
*CONN
*P spine_top_iw[29] O
*I *5059:LO O *D sky130_fd_sc_hd__conb_1
*CAP
1 spine_top_iw[29] 0.000147781
2 *5059:LO 0.000147781
3 spine_top_iw[29] *5112:DIODE 0
4 spine_top_iw[28] spine_top_iw[29] 0.000111189
*RES
1 *5059:LO spine_top_iw[29] 5.2429 
*END

*D_NET *128 0.00232773
*CONN
*P spine_top_iw[2] O
*I *5049:X O *D sky130_fd_sc_hd__buf_8
*CAP
1 spine_top_iw[2] 0.000561123
2 *5049:X 0.000561123
3 spine_top_iw[2] spine_top_iw[3] 0.000534534
4 spine_top_iw[2] *5207:A 0.000559624
5 spine_top_iw[0] spine_top_iw[2] 5.79828e-06
6 spine_top_iw[1] spine_top_iw[2] 8.2946e-05
7 *5031:A spine_top_iw[2] 2.25816e-05
*RES
1 *5049:X spine_top_iw[2] 13.2408 
*END

*D_NET *129 0.00229127
*CONN
*P spine_top_iw[3] O
*I *5050:X O *D sky130_fd_sc_hd__buf_8
*CAP
1 spine_top_iw[3] 0.000654084
2 *5050:X 0.000654084
3 spine_top_iw[3] spine_top_iw[4] 0.000316998
4 spine_top_iw[3] spine_top_iw[5] 0
5 spine_top_iw[3] spine_top_iw[6] 0
6 spine_top_iw[3] *5149:A 0
7 spine_top_iw[3] *192:19 0.000107716
8 spine_top_iw[2] spine_top_iw[3] 0.000534534
9 *5031:A spine_top_iw[3] 2.38558e-05
*RES
1 *5050:X spine_top_iw[3] 15.0258 
*END

*D_NET *130 0.00175771
*CONN
*P spine_top_iw[4] O
*I *5051:X O *D sky130_fd_sc_hd__buf_8
*CAP
1 spine_top_iw[4] 0.000536351
2 *5051:X 0.000536351
3 spine_top_iw[4] spine_top_iw[5] 0.000311976
4 spine_top_iw[4] spine_top_iw[6] 1.27908e-05
5 spine_top_iw[3] spine_top_iw[4] 0.000316998
6 *5031:A spine_top_iw[4] 4.32417e-05
*RES
1 *5051:X spine_top_iw[4] 10.522 
*END

*D_NET *131 0.00224475
*CONN
*P spine_top_iw[5] O
*I *5052:X O *D sky130_fd_sc_hd__buf_8
*CAP
1 spine_top_iw[5] 0.000596342
2 *5052:X 0.000596342
3 spine_top_iw[5] spine_top_iw[6] 0.000529172
4 spine_top_iw[5] *5012:A 0
5 spine_top_iw[5] *194:19 0.000187064
6 spine_top_iw[3] spine_top_iw[5] 0
7 spine_top_iw[4] spine_top_iw[5] 0.000311976
8 *5031:A spine_top_iw[5] 2.38558e-05
*RES
1 *5052:X spine_top_iw[5] 13.2408 
*END

*D_NET *132 0.00413397
*CONN
*P spine_top_iw[6] O
*I *5053:X O *D sky130_fd_sc_hd__buf_8
*CAP
1 spine_top_iw[6] 0.00095936
2 *5053:X 0.00095936
3 spine_top_iw[6] spine_top_iw[7] 0.000564871
4 spine_top_iw[6] *5149:A 0.000319167
5 spine_top_iw[6] *192:19 0
6 spine_top_iw[6] *193:8 0.000494367
7 spine_top_iw[6] *194:19 9.40025e-05
8 spine_top_iw[3] spine_top_iw[6] 0
9 spine_top_iw[4] spine_top_iw[6] 1.27908e-05
10 spine_top_iw[5] spine_top_iw[6] 0.000529172
11 *5035:A spine_top_iw[6] 0.000200878
*RES
1 *5053:X spine_top_iw[6] 16.9435 
*END

*D_NET *133 0.00639071
*CONN
*P spine_top_iw[7] O
*I *5054:X O *D sky130_fd_sc_hd__buf_8
*CAP
1 spine_top_iw[7] 0.00215128
2 *5054:X 0.00215128
3 spine_top_iw[7] spine_top_iw[8] 0.00152327
4 spine_top_iw[7] *5053:A 0
5 spine_top_iw[7] *5057:A 0
6 spine_top_iw[7] *195:17 0
7 spine_top_iw[6] spine_top_iw[7] 0.000564871
*RES
1 *5054:X spine_top_iw[7] 32.9883 
*END

*D_NET *134 0.00545922
*CONN
*P spine_top_iw[8] O
*I *5055:X O *D sky130_fd_sc_hd__buf_8
*CAP
1 spine_top_iw[8] 0.0015699
2 *5055:X 0.0015699
3 spine_top_iw[8] spine_top_iw[9] 5.36723e-05
4 spine_top_iw[8] *5057:A 0.000686428
5 spine_top_iw[10] spine_top_iw[8] 5.60493e-05
6 spine_top_iw[13] spine_top_iw[8] 0
7 spine_top_iw[7] spine_top_iw[8] 0.00152327
*RES
1 *5055:X spine_top_iw[8] 20.0492 
*END

*D_NET *135 0.00172433
*CONN
*P spine_top_iw[9] O
*I *5056:X O *D sky130_fd_sc_hd__buf_8
*CAP
1 spine_top_iw[9] 0.000770704
2 *5056:X 0.000770704
3 spine_top_iw[9] *5012:A 0
4 spine_top_iw[9] *5016:A 7.72994e-05
5 spine_top_iw[10] spine_top_iw[9] 5.19453e-05
6 spine_top_iw[11] spine_top_iw[9] 0
7 spine_top_iw[12] spine_top_iw[9] 0
8 spine_top_iw[8] spine_top_iw[9] 5.36723e-05
9 *5015:A spine_top_iw[9] 0
*RES
1 *5056:X spine_top_iw[9] 15.1322 
*END

*D_NET *136 0.000677947
*CONN
*P spine_top_ow[0] I
*I *5112:DIODE I *D sky130_fd_sc_hd__diode_2
*CAP
1 spine_top_ow[0] 0.000267037
2 *5112:DIODE 0.000267037
3 *5112:DIODE spine_top_ow[1] 0.000143874
4 spine_top_iw[29] *5112:DIODE 0
*RES
1 spine_top_ow[0] *5112:DIODE 6.85903 
*END

*D_NET *137 0.00221227
*CONN
*P spine_top_ow[10] I
*I *5194:A I *D sky130_fd_sc_hd__inv_2
*I *5123:DIODE I *D sky130_fd_sc_hd__diode_2
*I *4962:Z O *D sky130_fd_sc_hd__ebufn_1
*CAP
1 spine_top_ow[10] 0.00033809
2 *5194:A 0.000233011
3 *5123:DIODE 0
4 *4962:Z 0.00042668
5 *137:10 0.000531759
6 spine_top_ow[10] spine_top_ow[11] 0.0001146
7 spine_top_ow[10] spine_top_ow[8] 0
8 spine_top_ow[10] spine_top_ow[9] 0.000198293
9 *5194:A *4961:TE_B 4.25093e-05
10 *5194:A *5193:A 0
11 *5194:A *5196:A0 4.82919e-05
12 *5194:A *170:203 4.92062e-05
13 *5194:A *171:88 4.18603e-06
14 *5194:A *171:99 5.12942e-05
15 *137:10 *171:105 8.77498e-05
16 *5045:A *5194:A 8.65961e-05
*RES
1 *4962:Z *137:10 6.54 
2 *137:10 *5123:DIODE 3.6 
3 *137:10 spine_top_ow[10] 2.28383 
4 *4962:Z *5194:A 11.115 
*END

*D_NET *138 0.00154285
*CONN
*P spine_top_ow[11] I
*I *5124:DIODE I *D sky130_fd_sc_hd__diode_2
*I *5180:A I *D sky130_fd_sc_hd__inv_2
*I *4940:Z O *D sky130_fd_sc_hd__ebufn_1
*CAP
1 spine_top_ow[11] 0.000347102
2 *5124:DIODE 2.20223e-05
3 *5180:A 0.000115938
4 *4940:Z 2.20223e-05
5 *138:6 0.00046304
6 spine_top_ow[11] spine_top_ow[12] 0.000111189
7 spine_top_ow[11] spine_top_ow[13] 2.53417e-05
8 spine_top_ow[11] spine_top_ow[14] 0
9 spine_top_ow[11] spine_top_ow[8] 0
10 spine_top_ow[11] spine_top_ow[9] 2.64611e-05
11 spine_top_ow[11] *5148:A 0
12 spine_top_ow[11] *139:8 0
13 *5124:DIODE *171:105 4.99619e-05
14 *5180:A *5233:A1 7.3664e-05
15 *5180:A *139:8 0
16 *5180:A *159:10 0
17 *5180:A *170:65 8.65905e-05
18 *5180:A *171:115 0
19 spine_top_ow[10] spine_top_ow[11] 0.0001146
20 *5045:A *5180:A 8.49205e-05
*RES
1 *4940:Z *138:6 3.6 
2 *138:6 *5180:A 6.285 
3 *138:6 spine_top_ow[11] 2.27623 
4 *4940:Z *5124:DIODE 3.65 
*END

*D_NET *139 0.00124635
*CONN
*P spine_top_ow[12] I
*I *5181:A I *D sky130_fd_sc_hd__inv_2
*I *5125:DIODE I *D sky130_fd_sc_hd__diode_2
*I *4941:Z O *D sky130_fd_sc_hd__ebufn_1
*CAP
1 spine_top_ow[12] 0.000222032
2 *5181:A 1.47197e-05
3 *5125:DIODE 0
4 *4941:Z 0.000122192
5 *139:8 0.000329504
6 spine_top_ow[12] spine_top_ow[13] 0.0001146
7 *5181:A *170:65 0.00012657
8 *139:8 *140:21 0
9 *139:8 *171:115 7.89689e-05
10 spine_top_ow[11] spine_top_ow[12] 0.000111189
11 spine_top_ow[11] *139:8 0
12 *5045:A *5181:A 0.00012657
13 *5180:A *139:8 0
*RES
1 *4941:Z *139:8 5.745 
2 *139:8 *5125:DIODE 3.6 
3 *139:8 spine_top_ow[12] 3.6829 
4 *4941:Z *5181:A 4.34 
*END

*D_NET *140 0.00179894
*CONN
*P spine_top_ow[13] I
*I *5126:DIODE I *D sky130_fd_sc_hd__diode_2
*I *5182:A I *D sky130_fd_sc_hd__inv_2
*I *4942:Z O *D sky130_fd_sc_hd__ebufn_1
*CAP
1 spine_top_ow[13] 0.000161688
2 *5126:DIODE 0
3 *5182:A 0.0001769
4 *4942:Z 5.74818e-05
5 *140:21 0.000266079
6 *140:8 0.000338773
7 spine_top_ow[13] spine_top_ow[14] 0.00022963
8 spine_top_ow[13] *5148:A 0
9 *5182:A *5171:A1 0
10 *5182:A *171:115 2.59981e-05
11 *5182:A *304:28 0.000123225
12 *140:21 *171:115 7.89689e-05
13 spine_top_ow[11] spine_top_ow[13] 2.53417e-05
14 spine_top_ow[12] spine_top_ow[13] 0.0001146
15 *5043:A *140:8 8.65905e-05
16 *24:32 *5182:A 0.000113662
17 *139:8 *140:21 0
*RES
1 *4942:Z *140:8 4.395 
2 *140:8 *5182:A 7.395 
3 *140:8 *140:21 2.145 
4 *140:21 *5126:DIODE 3.6 
5 *140:21 spine_top_ow[13] 1.98743 
*END

*D_NET *141 0.00335642
*CONN
*P spine_top_ow[14] I
*I *5183:A I *D sky130_fd_sc_hd__inv_2
*I *5128:DIODE I *D sky130_fd_sc_hd__diode_2
*I *4943:Z O *D sky130_fd_sc_hd__ebufn_1
*CAP
1 spine_top_ow[14] 0.00105415
2 *5183:A 3.37454e-05
3 *5128:DIODE 0.000342371
4 *4943:Z 0
5 *141:6 0.00136277
6 spine_top_ow[14] spine_top_ow[15] 0.000197976
7 spine_top_ow[14] spine_top_ow[19] 0
8 spine_top_ow[14] *5171:A0 0
9 *5128:DIODE *5171:A0 0
10 *5128:DIODE *5199:A0 0
11 *5128:DIODE *308:16 0.000135777
12 spine_top_ow[11] spine_top_ow[14] 0
13 spine_top_ow[13] spine_top_ow[14] 0.00022963
*RES
1 *4943:Z *141:6 3.6 
2 *141:6 *5128:DIODE 8.58 
3 *141:6 spine_top_ow[14] 4.05463 
4 *5128:DIODE *5183:A 3.65 
*END

*D_NET *142 0.00309485
*CONN
*P spine_top_ow[15] I
*I *5129:DIODE I *D sky130_fd_sc_hd__diode_2
*I *5184:A I *D sky130_fd_sc_hd__inv_2
*I *4944:Z O *D sky130_fd_sc_hd__ebufn_1
*CAP
1 spine_top_ow[15] 0.000624413
2 *5129:DIODE 0
3 *5184:A 1.61442e-05
4 *4944:Z 0.00018272
5 *142:22 0.000790989
6 spine_top_ow[15] spine_top_ow[16] 0.000691848
7 spine_top_ow[15] spine_top_ow[17] 8.33683e-05
8 spine_top_ow[15] spine_top_ow[18] 4.00045e-05
9 spine_top_ow[15] spine_top_ow[19] 5.20496e-06
10 spine_top_ow[15] spine_top_ow[20] 1.60558e-05
11 spine_top_ow[15] *5148:A 0
12 spine_top_ow[15] *148:21 2.09442e-05
13 *5184:A *170:81 0.000125264
14 *5184:A *171:123 0.000125264
15 *142:22 *148:21 2.66939e-05
16 *142:22 *171:158 6.10014e-05
17 spine_top_ow[14] spine_top_ow[15] 0.000197976
18 *5043:A *142:22 8.696e-05
*RES
1 *4944:Z *5184:A 4.34 
2 *4944:Z *142:22 6.54 
3 *142:22 *5129:DIODE 3.6 
4 *142:22 spine_top_ow[15] 3.69317 
*END

*D_NET *143 0.00299508
*CONN
*P spine_top_ow[16] I
*I *5130:DIODE I *D sky130_fd_sc_hd__diode_2
*I *5185:A I *D sky130_fd_sc_hd__inv_2
*I *4945:Z O *D sky130_fd_sc_hd__ebufn_1
*CAP
1 spine_top_ow[16] 0.000658311
2 *5130:DIODE 0.000710177
3 *5185:A 0
4 *4945:Z 9.54165e-05
5 *143:10 0.000147282
6 spine_top_ow[16] spine_top_ow[17] 0.000168703
7 spine_top_ow[16] spine_top_ow[18] 0
8 spine_top_ow[16] *4947:TE_B 2.49909e-05
9 spine_top_ow[16] *4953:A 0.000185328
10 spine_top_ow[16] *148:21 6.78266e-05
11 spine_top_ow[16] *171:158 2.75145e-05
12 spine_top_ow[16] *309:16 2.03356e-05
13 *5130:DIODE *4953:A 0.000123319
14 *143:10 *4953:TE_B 0
15 *143:10 *5202:A1 7.4027e-05
16 *143:10 *5209:A 0
17 spine_top_ow[15] spine_top_ow[16] 0.000691848
*RES
1 *4945:Z *143:10 7.235 
2 *143:10 *5185:A 1.6 
3 *143:10 *5130:DIODE 2.74 
4 *5130:DIODE spine_top_ow[16] 11.6926 
*END

*D_NET *144 0.0017028
*CONN
*P spine_top_ow[17] I
*I *5131:DIODE I *D sky130_fd_sc_hd__diode_2
*I *5169:A I *D sky130_fd_sc_hd__buf_2
*I *4946:Z O *D sky130_fd_sc_hd__ebufn_1
*CAP
1 spine_top_ow[17] 0.000190912
2 *5131:DIODE 0
3 *5169:A 2.30828e-05
4 *4946:Z 0.000201174
5 *144:22 0.000369003
6 spine_top_ow[17] spine_top_ow[18] 0.000214889
7 *5169:A *170:73 0.000163204
8 *5169:A *171:119 0.000163204
9 *144:22 *5172:A1 3.86607e-05
10 spine_top_ow[15] spine_top_ow[17] 8.33683e-05
11 spine_top_ow[16] spine_top_ow[17] 0.000168703
12 *5043:A *144:22 8.65961e-05
*RES
1 *4946:Z *5169:A 4.685 
2 *4946:Z *144:22 6.54 
3 *144:22 *5131:DIODE 3.6 
4 *144:22 spine_top_ow[17] 2.0457 
*END

*D_NET *145 0.00104179
*CONN
*P spine_top_ow[18] I
*I *5170:A I *D sky130_fd_sc_hd__buf_2
*I *5132:DIODE I *D sky130_fd_sc_hd__diode_2
*I *4947:Z O *D sky130_fd_sc_hd__ebufn_1
*CAP
1 spine_top_ow[18] 0.000163886
2 *5170:A 5.00733e-05
3 *5132:DIODE 5.00733e-05
4 *4947:Z 7.03316e-05
5 *145:6 0.000234217
6 spine_top_ow[18] spine_top_ow[19] 0.000218312
7 spine_top_ow[15] spine_top_ow[18] 4.00045e-05
8 spine_top_ow[16] spine_top_ow[18] 0
9 spine_top_ow[17] spine_top_ow[18] 0.000214889
*RES
1 *4947:Z *145:6 2.395 
2 *145:6 spine_top_ow[18] 3.98743 
3 *145:6 *5132:DIODE 1.6 
4 *5132:DIODE *5170:A 3.995 
*END

*D_NET *146 0.00282542
*CONN
*P spine_top_ow[19] I
*I *5133:DIODE I *D sky130_fd_sc_hd__diode_2
*I *5156:A I *D sky130_fd_sc_hd__buf_2
*I *4948:Z O *D sky130_fd_sc_hd__ebufn_1
*CAP
1 spine_top_ow[19] 0.000370836
2 *5133:DIODE 0
3 *5156:A 8.46786e-05
4 *4948:Z 8.6021e-05
5 *146:19 0.000674573
6 *146:8 0.000474437
7 spine_top_ow[19] spine_top_ow[20] 0.000111189
8 spine_top_ow[19] spine_top_ow[21] 5.14416e-05
9 spine_top_ow[19] *309:16 1.10537e-05
10 *5156:A *5237:A 0.000198945
11 *146:8 *5157:A 2.97004e-06
12 *146:8 *148:21 5.4256e-05
13 *146:8 *238:159 0
14 *146:19 *5148:A 0
15 *146:19 *5172:A0 0
16 *146:19 *5172:A1 0
17 *146:19 *148:21 6.10789e-05
18 *146:19 *238:159 0
19 *146:19 *238:216 0
20 *146:19 *309:16 0.000420419
21 spine_top_ow[14] spine_top_ow[19] 0
22 spine_top_ow[15] spine_top_ow[19] 5.20496e-06
23 spine_top_ow[18] spine_top_ow[19] 0.000218312
*RES
1 *4948:Z *146:8 5.235 
2 *146:8 *5156:A 5.43 
3 *146:8 *146:19 6.735 
4 *146:19 *5133:DIODE 3.6 
5 *146:19 spine_top_ow[19] 2.33197 
*END

*D_NET *147 0.00320997
*CONN
*P spine_top_ow[1] I
*I *5113:DIODE I *D sky130_fd_sc_hd__diode_2
*I *5225:A I *D sky130_fd_sc_hd__inv_2
*I *4939:Z O *D sky130_fd_sc_hd__ebufn_1
*CAP
1 spine_top_ow[1] 0.000712562
2 *5113:DIODE 0
3 *5225:A 0.000141382
4 *4939:Z 6.38419e-05
5 *147:19 0.000817901
6 *147:8 0.000310562
7 spine_top_ow[1] spine_top_ow[2] 0.000226219
8 spine_top_ow[1] spine_top_ow[3] 2.03026e-05
9 spine_top_ow[1] *4950:TE_B 0.000109412
10 spine_top_ow[1] *5114:DIODE 0.000464559
11 spine_top_ow[1] *5148:A 0
12 *5225:A *170:10 6.44307e-05
13 *5225:A *170:19 3.46842e-05
14 *147:8 *242:8 2.77283e-05
15 *147:19 *4950:TE_B 2.9664e-05
16 *147:19 *170:19 4.28483e-05
17 *5112:DIODE spine_top_ow[1] 0.000143874
18 *5218:A *5225:A 0
*RES
1 *4939:Z *147:8 4.395 
2 *147:8 *5225:A 6.51 
3 *147:8 *147:19 2.145 
4 *147:19 *5113:DIODE 3.6 
5 *147:19 spine_top_ow[1] 10.9741 
*END

*D_NET *148 0.00308888
*CONN
*P spine_top_ow[20] I
*I *5134:DIODE I *D sky130_fd_sc_hd__diode_2
*I *5157:A I *D sky130_fd_sc_hd__buf_2
*I *4949:Z O *D sky130_fd_sc_hd__ebufn_1
*CAP
1 spine_top_ow[20] 9.07129e-05
2 *5134:DIODE 0
3 *5157:A 0.000165724
4 *4949:Z 9.12562e-05
5 *148:21 0.000630963
6 *148:8 0.00079723
7 spine_top_ow[20] spine_top_ow[21] 0.0001146
8 *5157:A *5178:S 5.30673e-05
9 *5157:A *171:21 8.5225e-05
10 *5157:A *171:44 8.65961e-05
11 *5157:A *238:159 0
12 *5157:A *238:161 0
13 *148:8 *4948:TE_B 2.8185e-05
14 *148:8 *171:23 2.75145e-05
15 *148:21 *4947:TE_B 0.000180682
16 *148:21 *5201:A1 2.67022e-05
17 *148:21 *171:158 0.000158297
18 *148:21 *309:16 0.000191109
19 spine_top_ow[15] spine_top_ow[20] 1.60558e-05
20 spine_top_ow[15] *148:21 2.09442e-05
21 spine_top_ow[16] *148:21 6.78266e-05
22 spine_top_ow[19] spine_top_ow[20] 0.000111189
23 *142:22 *148:21 2.66939e-05
24 *146:8 *5157:A 2.97004e-06
25 *146:8 *148:21 5.4256e-05
26 *146:19 *148:21 6.10789e-05
*RES
1 *4949:Z *148:8 4.74 
2 *148:8 *5157:A 7.05 
3 *148:8 *148:21 12.345 
4 *148:21 *5134:DIODE 3.6 
5 *148:21 spine_top_ow[20] 1.6429 
*END

*D_NET *149 0.00370851
*CONN
*P spine_top_ow[21] I
*I *5135:DIODE I *D sky130_fd_sc_hd__diode_2
*I *5158:A I *D sky130_fd_sc_hd__buf_2
*I *4951:Z O *D sky130_fd_sc_hd__ebufn_1
*CAP
1 spine_top_ow[21] 0.00140047
2 *5135:DIODE 0
3 *5158:A 8.87933e-05
4 *4951:Z 0.000150321
5 *149:24 0.00146199
6 spine_top_ow[21] spine_top_ow[22] 0.000111189
7 spine_top_ow[21] spine_top_ow[23] 3.75394e-05
8 spine_top_ow[21] spine_top_ow[24] 0
9 spine_top_ow[21] *4951:TE_B 9.82856e-06
10 *5158:A *5201:A0 0.000136884
11 *5158:A *303:18 4.66108e-05
12 *5158:A *307:18 4.82919e-05
13 *149:24 *171:15 5.05521e-05
14 spine_top_ow[19] spine_top_ow[21] 5.14416e-05
15 spine_top_ow[20] spine_top_ow[21] 0.0001146
*RES
1 *4951:Z *5158:A 9.285 
2 *4951:Z *149:24 2.395 
3 *149:24 spine_top_ow[21] 6.2877 
4 *149:24 *5135:DIODE 1.6 
*END

*D_NET *150 0.00235473
*CONN
*P spine_top_ow[22] I
*I *5136:DIODE I *D sky130_fd_sc_hd__diode_2
*I *5159:A I *D sky130_fd_sc_hd__buf_2
*I *4952:Z O *D sky130_fd_sc_hd__ebufn_1
*CAP
1 spine_top_ow[22] 0.000352661
2 *5136:DIODE 0.000586046
3 *5159:A 0
4 *4952:Z 0.000130554
5 *150:8 0.000363939
6 spine_top_ow[22] spine_top_ow[23] 0.000111189
7 spine_top_ow[22] *5140:DIODE 9.5799e-06
8 *5136:DIODE spine_top_ow[23] 1.22505e-05
9 *5136:DIODE *5160:A 0.000129735
10 *5136:DIODE *5209:A 0.000188523
11 *150:8 *5160:A 0.000288302
12 *150:8 *5201:A0 0
13 *150:8 *5202:A0 0
14 *150:8 *5209:A 7.07578e-05
15 spine_top_ow[21] spine_top_ow[22] 0.000111189
*RES
1 *4952:Z *150:8 7.02 
2 *150:8 *5159:A 3.6 
3 *150:8 *5136:DIODE 8.415 
4 *5136:DIODE spine_top_ow[22] 5.82557 
*END

*D_NET *151 0.00273342
*CONN
*P spine_top_ow[23] I
*I *5160:A I *D sky130_fd_sc_hd__buf_2
*I *5137:DIODE I *D sky130_fd_sc_hd__diode_2
*I *4953:Z O *D sky130_fd_sc_hd__ebufn_1
*CAP
1 spine_top_ow[23] 0.000456416
2 *5160:A 0.000174375
3 *5137:DIODE 4.28024e-05
4 *4953:Z 0.000456416
5 *151:4 0.000217178
6 spine_top_ow[23] spine_top_ow[24] 0.000278595
7 spine_top_ow[23] *5209:A 1.92979e-05
8 *5137:DIODE *5241:A 1.1392e-05
9 *5160:A spine_top_ow[24] 1.64907e-05
10 *5160:A *5202:A0 0
11 spine_top_ow[21] spine_top_ow[23] 3.75394e-05
12 spine_top_ow[22] spine_top_ow[23] 0.000111189
13 *5136:DIODE spine_top_ow[23] 1.22505e-05
14 *5136:DIODE *5160:A 0.000129735
15 *23:13 *5160:A 8.17606e-05
16 *23:15 *5160:A 0.00039968
17 *150:8 *5160:A 0.000288302
*RES
1 *4953:Z *151:4 1.6 
2 *151:4 *5137:DIODE 2.05 
3 *151:4 *5160:A 11.315 
4 *4953:Z spine_top_ow[23] 6.22583 
*END

*D_NET *152 0.00295678
*CONN
*P spine_top_ow[24] I
*I *5139:DIODE I *D sky130_fd_sc_hd__diode_2
*I *5161:A I *D sky130_fd_sc_hd__buf_2
*I *4954:Z O *D sky130_fd_sc_hd__ebufn_1
*CAP
1 spine_top_ow[24] 0.00109807
2 *5139:DIODE 0
3 *5161:A 2.11983e-05
4 *4954:Z 0.00015304
5 *152:20 0.00122991
6 spine_top_ow[24] *5140:DIODE 0.000111189
7 spine_top_ow[24] *5202:A0 0
8 *5161:A *5238:A 4.82919e-05
9 *152:20 *5202:A0 0
10 pad_uio_oex[4] spine_top_ow[24] 0
11 spine_top_ow[21] spine_top_ow[24] 0
12 spine_top_ow[23] spine_top_ow[24] 0.000278595
13 *5160:A spine_top_ow[24] 1.64907e-05
14 *23:15 spine_top_ow[24] 0
15 *23:15 *152:20 0
*RES
1 *4954:Z *5161:A 3.65 
2 *4954:Z *152:20 5.745 
3 *152:20 *5139:DIODE 3.6 
4 *152:20 spine_top_ow[24] 4.87023 
*END

*D_NET *153 0.000397115
*CONN
*P spine_top_ow[25] I
*I *5140:DIODE I *D sky130_fd_sc_hd__diode_2
*CAP
1 spine_top_ow[25] 0.000138173
2 *5140:DIODE 0.000138173
3 pad_uio_oex[4] *5140:DIODE 0
4 spine_top_ow[22] *5140:DIODE 9.5799e-06
5 spine_top_ow[24] *5140:DIODE 0.000111189
*RES
1 spine_top_ow[25] *5140:DIODE 5.2429 
*END

*D_NET *154 0.00231983
*CONN
*P spine_top_ow[2] I
*I *5226:A I *D sky130_fd_sc_hd__inv_2
*I *5114:DIODE I *D sky130_fd_sc_hd__diode_2
*I *4950:Z O *D sky130_fd_sc_hd__ebufn_1
*CAP
1 spine_top_ow[2] 0.000154526
2 *5226:A 7.94619e-06
3 *5114:DIODE 0.000547876
4 *4950:Z 0
5 *154:4 0.000401296
6 spine_top_ow[2] spine_top_ow[3] 0.00022963
7 spine_top_ow[2] *5148:A 0
8 *5114:DIODE *4950:TE_B 4.43871e-06
9 *5114:DIODE *5228:A1 0.000162311
10 *5114:DIODE *238:118 0
11 *5226:A *5228:A1 3.77879e-05
12 spine_top_ow[1] spine_top_ow[2] 0.000226219
13 spine_top_ow[1] *5114:DIODE 0.000464559
14 *5047:A *5114:DIODE 6.27438e-05
15 *5047:A *5226:A 2.04902e-05
*RES
1 *4950:Z *154:4 1.6 
2 *154:4 *5114:DIODE 13.595 
3 *154:4 *5226:A 2.05 
4 *5114:DIODE spine_top_ow[2] 5.6457 
*END

*D_NET *155 0.00302609
*CONN
*P spine_top_ow[3] I
*I *5115:DIODE I *D sky130_fd_sc_hd__diode_2
*I *5212:A I *D sky130_fd_sc_hd__inv_2
*I *4955:Z O *D sky130_fd_sc_hd__ebufn_1
*CAP
1 spine_top_ow[3] 0.000565704
2 *5115:DIODE 4.0513e-05
3 *5212:A 0
4 *4955:Z 0.000125995
5 *155:12 4.0513e-05
6 *155:10 0.000691699
7 spine_top_ow[3] spine_top_ow[4] 0.000577608
8 spine_top_ow[3] *5147:A 4.5387e-05
9 spine_top_ow[3] *5228:A0 7.26629e-05
10 spine_top_ow[3] *238:105 0.000136884
11 spine_top_ow[3] *238:118 5.30366e-05
12 *5115:DIODE *283:16 8.40269e-05
13 *155:10 *5228:A0 7.81876e-05
14 *155:10 *238:105 0.000139933
15 *155:10 *241:6 0.000124007
16 spine_top_ow[1] spine_top_ow[3] 2.03026e-05
17 spine_top_ow[2] spine_top_ow[3] 0.00022963
*RES
1 *4955:Z *155:10 6.375 
2 *155:10 *155:12 2 
3 *155:12 *5212:A 1.6 
4 *155:12 *5115:DIODE 2.395 
5 *155:10 spine_top_ow[3] 5.2637 
*END

*D_NET *156 0.00389737
*CONN
*P spine_top_ow[4] I
*I *5117:DIODE I *D sky130_fd_sc_hd__diode_2
*I *5213:A I *D sky130_fd_sc_hd__inv_2
*I *4956:Z O *D sky130_fd_sc_hd__ebufn_1
*CAP
1 spine_top_ow[4] 0.000446155
2 *5117:DIODE 0
3 *5213:A 0.000195659
4 *4956:Z 0
5 *156:23 0.000530744
6 *156:4 0.000280247
7 spine_top_ow[4] spine_top_ow[5] 0.000577901
8 spine_top_ow[4] *5147:A 2.47368e-05
9 spine_top_ow[4] *5195:A0 0.000140202
10 spine_top_ow[4] *5228:A0 3.89528e-05
11 *5213:A *5195:A0 0.000418044
12 *5213:A *5214:A 0
13 *5213:A *5229:A0 2.23485e-05
14 *5213:A *5230:A1 0.000157595
15 *5213:A *241:6 4.66108e-05
16 *5213:A *303:18 3.09164e-05
17 *5213:A *305:10 6.65804e-05
18 *156:23 *5195:A0 0.000185405
19 *156:23 *5228:A0 4.78859e-05
20 *156:23 *5229:A1 7.23602e-05
21 *156:23 *241:6 3.74161e-05
22 spine_top_ow[3] spine_top_ow[4] 0.000577608
*RES
1 *4956:Z *156:4 1.6 
2 *156:4 *5213:A 11 
3 *156:4 *156:23 4.595 
4 *156:23 *5117:DIODE 3.6 
5 *156:23 spine_top_ow[4] 4.69543 
*END

*D_NET *157 0.00380606
*CONN
*P spine_top_ow[5] I
*I *5118:DIODE I *D sky130_fd_sc_hd__diode_2
*I *5214:A I *D sky130_fd_sc_hd__inv_2
*I *4957:Z O *D sky130_fd_sc_hd__ebufn_1
*CAP
1 spine_top_ow[5] 0.000443033
2 *5118:DIODE 0
3 *5214:A 0.00022703
4 *4957:Z 0
5 *157:19 0.000510013
6 *157:6 0.000294009
7 spine_top_ow[5] spine_top_ow[6] 0.000574834
8 spine_top_ow[5] *5147:A 2.79364e-05
9 spine_top_ow[5] *5195:A0 0
10 spine_top_ow[5] *5196:A0 0.000142462
11 *5214:A *5196:A0 0.000418051
12 *5214:A *5229:A0 3.47668e-05
13 *5214:A *303:18 0.00015896
14 *5214:A *305:10 0.000156318
15 *157:19 *5195:A0 0
16 *157:19 *5196:A0 0.000175214
17 *157:19 *305:10 6.55328e-05
18 spine_top_ow[4] spine_top_ow[5] 0.000577901
19 *5213:A *5214:A 0
*RES
1 *4957:Z *157:6 3.6 
2 *157:6 *5214:A 10.035 
3 *157:6 *157:19 2.145 
4 *157:19 *5118:DIODE 3.6 
5 *157:19 spine_top_ow[5] 4.69543 
*END

*D_NET *158 0.00387353
*CONN
*P spine_top_ow[6] I
*I *5215:A I *D sky130_fd_sc_hd__inv_2
*I *5119:DIODE I *D sky130_fd_sc_hd__diode_2
*I *4958:Z O *D sky130_fd_sc_hd__ebufn_1
*CAP
1 spine_top_ow[6] 0.000749881
2 *5215:A 4.03338e-05
3 *5119:DIODE 0.000228867
4 *4958:Z 0
5 *158:6 0.000938414
6 spine_top_ow[6] spine_top_ow[7] 0.000244175
7 spine_top_ow[6] spine_top_ow[8] 1.10783e-05
8 spine_top_ow[6] *5147:A 5.88886e-05
9 spine_top_ow[6] *5233:A0 0.00011239
10 spine_top_ow[6] *170:55 0
11 spine_top_ow[6] *171:77 0.0002954
12 spine_top_ow[6] *171:88 3.18735e-05
13 *5119:DIODE *5196:A0 0
14 *5119:DIODE *5231:A1 0.000155928
15 *5119:DIODE *5233:A0 4.11198e-05
16 *5119:DIODE *171:64 2.15594e-05
17 *5119:DIODE *171:77 5.16418e-05
18 *5119:DIODE *303:18 3.00381e-05
19 *5119:DIODE *306:18 0.0002014
20 *5215:A *303:18 8.57024e-05
21 spine_top_ow[5] spine_top_ow[6] 0.000574834
*RES
1 *4958:Z *158:6 3.6 
2 *158:6 *5119:DIODE 8.235 
3 *158:6 spine_top_ow[6] 6.85197 
4 *5119:DIODE *5215:A 3.995 
*END

*D_NET *159 0.0018405
*CONN
*P spine_top_ow[7] I
*I *5216:A I *D sky130_fd_sc_hd__inv_2
*I *5120:DIODE I *D sky130_fd_sc_hd__diode_2
*I *4959:Z O *D sky130_fd_sc_hd__ebufn_1
*CAP
1 spine_top_ow[7] 0.000288748
2 *5216:A 0
3 *5120:DIODE 9.73191e-06
4 *4959:Z 8.93455e-05
5 *159:19 0.000308601
6 *159:10 0.00011893
7 spine_top_ow[7] spine_top_ow[8] 0.000246812
8 spine_top_ow[7] spine_top_ow[9] 0.000156525
9 spine_top_ow[7] *5148:A 0
10 *5120:DIODE *4940:TE_B 4.82863e-05
11 *5120:DIODE *171:105 4.82863e-05
12 *159:10 spine_top_ow[8] 0
13 *159:10 *170:194 0.000113416
14 *159:19 *4940:TE_B 3.57349e-05
15 *159:19 *170:203 4.77757e-05
16 *159:19 *171:105 8.41307e-05
17 spine_top_ow[6] spine_top_ow[7] 0.000244175
18 *5180:A *159:10 0
*RES
1 *4959:Z *159:10 7.235 
2 *159:10 *5120:DIODE 2.05 
3 *159:10 *159:19 0.795 
4 *159:19 spine_top_ow[7] 4.24837 
5 *159:19 *5216:A 1.6 
*END

*D_NET *160 0.0112912
*CONN
*P spine_top_ow[8] I
*I *5121:DIODE I *D sky130_fd_sc_hd__diode_2
*I *5217:A I *D sky130_fd_sc_hd__inv_2
*I *4960:Z O *D sky130_fd_sc_hd__ebufn_1
*CAP
1 spine_top_ow[8] 0.000953823
2 *5121:DIODE 0
3 *5217:A 0.000178855
4 *4960:Z 6.36179e-05
5 *160:12 0.00210337
6 *160:8 0.00294195
7 spine_top_ow[8] spine_top_ow[9] 0.000280839
8 spine_top_ow[8] *5148:A 0
9 spine_top_ow[8] *5197:A1 7.23602e-05
10 spine_top_ow[8] *5198:A0 0
11 spine_top_ow[8] *5233:A1 0.000218102
12 spine_top_ow[8] *170:55 0
13 spine_top_ow[8] *170:194 0
14 spine_top_ow[8] *238:33 0.000243995
15 spine_top_ow[8] *238:46 0.000103815
16 *160:8 *171:58 4.92062e-05
17 *160:12 *5197:A0 0
18 *160:12 *5198:A0 0.000288226
19 *160:12 *5232:A1 4.05358e-05
20 *160:12 *238:33 5.22027e-05
21 *160:12 *307:18 0.000162332
22 spine_top_ow[10] spine_top_ow[8] 0
23 spine_top_ow[11] spine_top_ow[8] 0
24 spine_top_ow[6] spine_top_ow[8] 1.10783e-05
25 spine_top_ow[7] spine_top_ow[8] 0.000246812
26 *5096:DIODE *5217:A 0
27 *5096:DIODE *160:12 0
28 *5186:A *160:12 0
29 *5187:A *160:12 9.57632e-05
30 *5188:A *160:12 0
31 *81:26 *5217:A 0.000233925
32 *81:26 *160:12 0.00295042
33 *83:22 *160:12 0
34 *159:10 spine_top_ow[8] 0
*RES
1 *4960:Z *160:8 4.395 
2 *160:8 *160:12 47.475 
3 *160:12 *5217:A 7.395 
4 *160:12 *5121:DIODE 3.6 
5 *160:8 spine_top_ow[8] 13.2472 
*END

*D_NET *161 0.002769
*CONN
*P spine_top_ow[9] I
*I *5193:A I *D sky130_fd_sc_hd__inv_2
*I *5122:DIODE I *D sky130_fd_sc_hd__diode_2
*I *4961:Z O *D sky130_fd_sc_hd__ebufn_1
*CAP
1 spine_top_ow[9] 0.000480325
2 *5193:A 0.000230093
3 *5122:DIODE 0
4 *4961:Z 0.000288109
5 *161:6 0.000538341
6 spine_top_ow[9] *5148:A 0
7 *5193:A *5195:A1 6.49981e-05
8 *5193:A *5196:A0 8.696e-05
9 *5193:A *5196:S 9.50342e-06
10 *5193:A *280:8 8.04121e-05
11 *161:6 *4961:A 5.2397e-05
12 spine_top_ow[10] spine_top_ow[9] 0.000198293
13 spine_top_ow[11] spine_top_ow[9] 2.64611e-05
14 spine_top_ow[7] spine_top_ow[9] 0.000156525
15 spine_top_ow[8] spine_top_ow[9] 0.000280839
16 *5045:A *5193:A 0.000275746
17 *5194:A *5193:A 0
*RES
1 *4961:Z *161:6 2.395 
2 *161:6 spine_top_ow[9] 4.7449 
3 *161:6 *5122:DIODE 1.6 
4 *4961:Z *5193:A 12.255 
*END

*D_NET *162 0.00246605
*CONN
*I *5088:B I *D sky130_fd_sc_hd__and2_2
*I *5091:B I *D sky130_fd_sc_hd__and2_2
*I *4909:X O *D sky130_fd_sc_hd__buf_2
*CAP
1 *5088:B 0.000221993
2 *5091:B 0.000354497
3 *4909:X 0.000363597
4 *162:12 0.000940086
5 *5091:B *5088:A 0
6 *5091:B *5091:A 0.000105849
7 *91:22 *5091:B 0
8 *91:22 *162:12 0.000480031
*RES
1 *4909:X *162:12 13.235 
2 *162:12 *5091:B 11.525 
3 *162:12 *5088:B 4.93 
*END

*D_NET *163 0.0053646
*CONN
*I *5078:CLK I *D sky130_fd_sc_hd__dfrbp_2
*I *4910:X O *D sky130_fd_sc_hd__buf_2
*CAP
1 *5078:CLK 0.00172901
2 *4910:X 0.00172901
3 *5078:CLK *4979:B 9.29176e-05
4 *5078:CLK *5000:A 4.77757e-05
5 *5078:CLK *5083:RESET_B 5.63018e-05
6 *5078:CLK *173:191 2.75145e-05
7 spine_bot_iw[12] *5078:CLK 0.000134634
8 *4911:A *5078:CLK 0.000648728
9 *4971:A *5078:CLK 2.937e-05
10 *4973:A *5078:CLK 2.49909e-05
11 *4975:A *5078:CLK 0.000621178
12 *4977:A *5078:CLK 9.56413e-05
13 *4979:A *5078:CLK 0.000127531
*RES
1 *4910:X *5078:CLK 36.99 
*END

*D_NET *164 0.0108482
*CONN
*I *5086:RESET_B I *D sky130_fd_sc_hd__dfrbp_2
*I *5087:RESET_B I *D sky130_fd_sc_hd__dfrbp_2
*I *5081:RESET_B I *D sky130_fd_sc_hd__dfrbp_2
*I *5080:RESET_B I *D sky130_fd_sc_hd__dfrbp_2
*I *5079:RESET_B I *D sky130_fd_sc_hd__dfrbp_2
*I *5078:RESET_B I *D sky130_fd_sc_hd__dfrbp_2
*I *5085:RESET_B I *D sky130_fd_sc_hd__dfrbp_2
*I *5082:RESET_B I *D sky130_fd_sc_hd__dfrbp_2
*I *5084:RESET_B I *D sky130_fd_sc_hd__dfrbp_2
*I *5083:RESET_B I *D sky130_fd_sc_hd__dfrbp_2
*I *4911:X O *D sky130_fd_sc_hd__buf_2
*CAP
1 *5086:RESET_B 0.000160994
2 *5087:RESET_B 0
3 *5081:RESET_B 0
4 *5080:RESET_B 0
5 *5079:RESET_B 0
6 *5078:RESET_B 0.000216908
7 *5085:RESET_B 0.000383485
8 *5082:RESET_B 0.00087238
9 *5084:RESET_B 0.000654243
10 *5083:RESET_B 0.00142009
11 *4911:X 0.00092545
12 *164:115 0.000367286
13 *164:80 0.000381806
14 *164:78 0.000373892
15 *164:76 0.000460277
16 *164:41 0.000957891
17 *5078:RESET_B *4966:A 0
18 *5078:RESET_B *173:123 0.0001369
19 *5078:RESET_B *173:125 0.000197788
20 *5078:RESET_B *224:8 7.69078e-05
21 *5082:RESET_B *5082:CLK 0.00012657
22 *5082:RESET_B *5083:CLK 0.00026033
23 *5082:RESET_B *228:10 0.000120621
24 *5083:RESET_B *4991:B 0
25 *5083:RESET_B *4992:A 0
26 *5083:RESET_B *4994:A 4.70256e-05
27 *5083:RESET_B *229:8 4.70477e-05
28 *5084:RESET_B *5083:CLK 9.66021e-05
29 *5084:RESET_B *5083:D 2.30292e-05
30 *5084:RESET_B *5084:CLK 0
31 *5084:RESET_B *229:8 9.56213e-05
32 *5085:RESET_B *5086:CLK 0
33 *5086:RESET_B *5008:A 0.000102142
34 *5086:RESET_B *5087:CLK 0
35 *5086:RESET_B *233:8 2.40101e-05
36 *164:41 *197:8 0.000316415
37 *164:41 *231:8 0.00014168
38 *164:76 *5005:A 6.5525e-05
39 *164:76 *5053:A 1.07797e-05
40 *164:76 *195:17 0
41 *164:76 *196:8 4.82863e-05
42 *164:76 *228:10 0.0001254
43 *164:78 *5004:A 0
44 *164:78 *173:123 0.000219692
45 *164:78 *195:17 0
46 *164:80 *173:123 0.00035749
47 *164:115 *5008:A 4.40812e-05
48 *164:115 *198:8 0.000239807
49 *164:115 *232:8 0.00014168
50 spine_bot_iw[10] *5082:RESET_B 0
51 spine_bot_iw[24] *5083:RESET_B 0
52 spine_bot_iw[25] *5083:RESET_B 0.000277098
53 spine_bot_iw[6] *5078:RESET_B 0
54 spine_bot_iw[6] *164:78 0
55 spine_bot_iw[6] *164:80 0
56 spine_bot_iw[7] *164:76 9.17107e-05
57 spine_bot_iw[7] *164:78 7.59627e-05
58 spine_bot_iw[8] *164:76 6.31804e-05
59 *4971:A *5078:RESET_B 4.3767e-05
60 *5078:CLK *5083:RESET_B 5.63018e-05
*RES
1 *4911:X *5083:RESET_B 21.1925 
2 *5083:RESET_B *5084:RESET_B 12.3775 
3 *5084:RESET_B *164:41 6.1925 
4 *164:41 *5082:RESET_B 15.9675 
5 *164:41 *5085:RESET_B 4.91 
6 *5082:RESET_B *164:76 7.7075 
7 *164:76 *164:78 4.44 
8 *164:78 *164:80 4.185 
9 *164:80 *5078:RESET_B 6.6725 
10 *164:80 *5079:RESET_B 2 
11 *164:78 *5080:RESET_B 2 
12 *164:76 *5081:RESET_B 2 
13 *5085:RESET_B *164:115 6.8825 
14 *164:115 *5087:RESET_B 2 
15 *164:115 *5086:RESET_B 5.3075 
*END

*D_NET *165 0.000154298
*CONN
*I *4912:A I *D sky130_fd_sc_hd__bufinv_8
*I *4904:Y O *D sky130_fd_sc_hd__inv_2
*CAP
1 *4912:A 3.36697e-05
2 *4904:Y 3.36697e-05
3 *24:54 *4912:A 8.69583e-05
*RES
1 *4904:Y *4912:A 3.995 
*END

*D_NET *166 0.0145163
*CONN
*I *4924:TE_B I *D sky130_fd_sc_hd__ebufn_1
*I *4935:TE_B I *D sky130_fd_sc_hd__ebufn_1
*I *4933:TE_B I *D sky130_fd_sc_hd__ebufn_1
*I *4913:TE_B I *D sky130_fd_sc_hd__ebufn_1
*I *4930:TE_B I *D sky130_fd_sc_hd__ebufn_1
*I *4932:TE_B I *D sky130_fd_sc_hd__ebufn_1
*I *4934:TE_B I *D sky130_fd_sc_hd__ebufn_1
*I *4929:TE_B I *D sky130_fd_sc_hd__ebufn_1
*I *4931:TE_B I *D sky130_fd_sc_hd__ebufn_1
*I *4936:TE_B I *D sky130_fd_sc_hd__ebufn_1
*I *4914:TE_B I *D sky130_fd_sc_hd__ebufn_1
*I *4916:TE_B I *D sky130_fd_sc_hd__ebufn_1
*I *4917:TE_B I *D sky130_fd_sc_hd__ebufn_1
*I *4920:TE_B I *D sky130_fd_sc_hd__ebufn_1
*I *4922:TE_B I *D sky130_fd_sc_hd__ebufn_1
*I *4928:TE_B I *D sky130_fd_sc_hd__ebufn_1
*I *4925:TE_B I *D sky130_fd_sc_hd__ebufn_1
*I *4926:TE_B I *D sky130_fd_sc_hd__ebufn_1
*I *4921:TE_B I *D sky130_fd_sc_hd__ebufn_1
*I *4923:TE_B I *D sky130_fd_sc_hd__ebufn_1
*I *4919:TE_B I *D sky130_fd_sc_hd__ebufn_1
*I *4927:TE_B I *D sky130_fd_sc_hd__ebufn_1
*I *4918:TE_B I *D sky130_fd_sc_hd__ebufn_1
*I *4915:TE_B I *D sky130_fd_sc_hd__ebufn_1
*I *4912:Y O *D sky130_fd_sc_hd__bufinv_8
*CAP
1 *4924:TE_B 0
2 *4935:TE_B 0
3 *4933:TE_B 0.000173893
4 *4913:TE_B 1.78604e-05
5 *4930:TE_B 0
6 *4932:TE_B 0
7 *4934:TE_B 0.000133784
8 *4929:TE_B 0
9 *4931:TE_B 0
10 *4936:TE_B 0
11 *4914:TE_B 0
12 *4916:TE_B 0
13 *4917:TE_B 2.08101e-05
14 *4920:TE_B 0
15 *4922:TE_B 0
16 *4928:TE_B 0
17 *4925:TE_B 0.000131564
18 *4926:TE_B 1.37047e-05
19 *4921:TE_B 0
20 *4923:TE_B 5.75836e-05
21 *4919:TE_B 2.08101e-05
22 *4927:TE_B 0.000192061
23 *4918:TE_B 8.51468e-05
24 *4915:TE_B 0.0001031
25 *4912:Y 0.000152242
26 *166:219 0.000408278
27 *166:213 0.000234385
28 *166:187 0.000319567
29 *166:183 0.000295957
30 *166:117 0.000214097
31 *166:104 0.00020267
32 *166:102 0.00016705
33 *166:88 0.000182699
34 *166:66 0.000426504
35 *166:51 0.000390315
36 *166:49 0.00021665
37 *166:47 0.000133266
38 *166:43 0.000213844
39 *166:39 0.000238753
40 *166:26 0.000339827
41 *166:24 0.000290772
42 *166:22 0.000295651
43 *166:20 0.000141895
44 *166:18 0.000245718
45 *166:14 0.000211933
46 *166:10 0.000229427
47 *4918:TE_B *167:75 2.92496e-05
48 *4918:TE_B *167:81 8.69583e-05
49 *4919:TE_B *167:81 0
50 *4923:TE_B *4921:A 0.000231359
51 *4925:TE_B *4925:A 4.82919e-05
52 *4926:TE_B *4926:A 4.66108e-05
53 *4926:TE_B *5242:A 2.75229e-05
54 *4927:TE_B *4927:A 0.00013927
55 *4934:TE_B *4930:A 7.66083e-05
56 *4934:TE_B *4934:A 0.000125262
57 *4934:TE_B *167:143 0.000187894
58 *166:14 *167:199 0.000158297
59 *166:18 *167:191 0.000198155
60 *166:20 *167:191 4.82863e-05
61 *166:22 *167:184 0.000236459
62 *166:22 *167:191 7.66083e-05
63 *166:24 *167:128 0.000124105
64 *166:24 *167:177 0.000226373
65 *166:24 *167:184 7.49327e-05
66 *166:26 *167:121 0.000237715
67 *166:26 *167:128 7.55432e-05
68 *166:39 *167:114 0.000239385
69 *166:39 *167:121 7.38676e-05
70 *166:43 *5242:A 0.000151541
71 *166:43 *167:107 0.000141323
72 *166:43 *167:114 3.90495e-05
73 *166:47 *5242:A 0.000313258
74 *166:47 *167:100 0.000136027
75 *166:47 *167:107 4.27622e-05
76 *166:51 *167:75 0.000129047
77 *166:66 *4927:A 4.43603e-05
78 *166:66 *167:81 0.000232668
79 *166:88 *167:75 1.97535e-05
80 *166:102 *5242:A 0.000167593
81 *166:102 *167:62 0.000237715
82 *166:102 *167:69 3.6355e-05
83 *166:102 *167:100 3.57349e-05
84 *166:104 *4926:A 8.52883e-05
85 *166:104 *5242:A 0.000331086
86 *166:104 *167:6 0.000150379
87 *166:104 *167:33 0.000188957
88 *166:104 *167:55 7.60921e-05
89 *166:104 *167:62 7.38676e-05
90 *166:117 *167:19 8.53322e-05
91 *166:187 *4930:A 0.00031343
92 *166:219 *4935:A 0.000238919
93 *166:219 *167:199 3.66286e-05
94 spine_bot_ow[11] *4915:TE_B 0
95 spine_bot_ow[12] *4915:TE_B 8.66976e-06
96 spine_bot_ow[13] *4915:TE_B 1.54862e-05
97 spine_bot_ow[15] *4918:TE_B 0
98 spine_bot_ow[17] *166:88 0
99 spine_bot_ow[18] *166:88 8.66976e-06
100 spine_bot_ow[19] *166:88 2.04591e-05
101 spine_bot_ow[3] *166:14 2.32724e-05
102 spine_bot_ow[4] *166:183 0
103 spine_bot_ow[6] *166:183 0
104 *4911:A *4933:TE_B 0.000419392
105 *4911:A *166:219 6.6406e-05
106 *4999:A *4923:TE_B 3.17443e-05
107 *4999:A *166:88 3.1835e-05
108 *5096:DIODE *4915:TE_B 0
109 *5102:DIODE *166:88 0
110 *5:45 *4923:TE_B 0.000311288
111 *5:45 *4925:TE_B 0.000123731
112 *5:45 *166:88 7.40446e-05
113 *24:54 *166:10 9.27495e-05
114 *83:22 *4915:TE_B 1.73877e-05
115 *84:22 *4915:TE_B 4.91189e-05
116 *89:22 *166:88 1.52945e-05
117 *90:24 *166:88 6.10014e-05
118 *95:22 *166:117 0.000182062
119 *99:8 *4913:TE_B 2.75229e-05
120 *99:8 *166:18 1.12578e-05
121 *99:24 *166:10 8.71001e-05
122 *99:24 *166:14 5.84456e-05
123 *100:10 *166:10 5.84989e-05
124 *100:10 *166:183 4.70343e-05
125 *102:24 *166:183 0
126 *104:6 *4934:TE_B 4.95182e-05
127 *105:29 *4933:TE_B 4.66108e-05
*RES
1 *4912:Y *166:10 6.975 
2 *166:10 *166:14 3.89 
3 *166:14 *166:18 2.535 
4 *166:18 *166:20 0.45 
5 *166:20 *166:22 2.865 
6 *166:22 *166:24 3.9 
7 *166:24 *166:26 2.865 
8 *166:26 *4915:TE_B 7.745 
9 *166:26 *166:39 2.865 
10 *166:39 *166:43 3.225 
11 *166:43 *166:47 3.225 
12 *166:47 *166:49 2 
13 *166:49 *166:51 1.635 
14 *166:51 *4918:TE_B 5.355 
15 *166:51 *166:66 5.9 
16 *166:66 *4927:TE_B 4.825 
17 *166:66 *4919:TE_B 1.96 
18 *166:49 *166:88 4.94 
19 *166:88 *4923:TE_B 4.465 
20 *166:88 *4921:TE_B 1.6 
21 *166:47 *166:102 2.865 
22 *166:102 *166:104 5.28 
23 *166:104 *4926:TE_B 2.05 
24 *166:104 *166:117 6.145 
25 *166:117 *4925:TE_B 4.255 
26 *166:117 *4928:TE_B 1.6 
27 *166:102 *4922:TE_B 1.6 
28 *166:47 *4920:TE_B 1.6 
29 *166:43 *4917:TE_B 1.96 
30 *166:39 *4916:TE_B 1.6 
31 *166:26 *4914:TE_B 1.6 
32 *166:24 *4936:TE_B 1.6 
33 *166:22 *4931:TE_B 1.6 
34 *166:20 *4929:TE_B 1.6 
35 *166:18 *166:183 5.89 
36 *166:183 *166:187 3.915 
37 *166:187 *4934:TE_B 5.155 
38 *166:187 *4932:TE_B 1.6 
39 *166:183 *4930:TE_B 1.6 
40 *166:14 *4913:TE_B 2.05 
41 *166:10 *166:213 2 
42 *166:213 *166:219 4.275 
43 *166:219 *4933:TE_B 5.5 
44 *166:219 *4935:TE_B 1.6 
45 *166:213 *4924:TE_B 1.6 
*END

*D_NET *167 0.0123288
*CONN
*I *4913:A I *D sky130_fd_sc_hd__ebufn_1
*I *4924:A I *D sky130_fd_sc_hd__ebufn_1
*I *4935:A I *D sky130_fd_sc_hd__ebufn_1
*I *4929:A I *D sky130_fd_sc_hd__ebufn_1
*I *4931:A I *D sky130_fd_sc_hd__ebufn_1
*I *4933:A I *D sky130_fd_sc_hd__ebufn_1
*I *4915:A I *D sky130_fd_sc_hd__ebufn_1
*I *4930:A I *D sky130_fd_sc_hd__ebufn_1
*I *4932:A I *D sky130_fd_sc_hd__ebufn_1
*I *4934:A I *D sky130_fd_sc_hd__ebufn_1
*I *4936:A I *D sky130_fd_sc_hd__ebufn_1
*I *4914:A I *D sky130_fd_sc_hd__ebufn_1
*I *4916:A I *D sky130_fd_sc_hd__ebufn_1
*I *4917:A I *D sky130_fd_sc_hd__ebufn_1
*I *4918:A I *D sky130_fd_sc_hd__ebufn_1
*I *4919:A I *D sky130_fd_sc_hd__ebufn_1
*I *4927:A I *D sky130_fd_sc_hd__ebufn_1
*I *4920:A I *D sky130_fd_sc_hd__ebufn_1
*I *4922:A I *D sky130_fd_sc_hd__ebufn_1
*I *4921:A I *D sky130_fd_sc_hd__ebufn_1
*I *4923:A I *D sky130_fd_sc_hd__ebufn_1
*I *4925:A I *D sky130_fd_sc_hd__ebufn_1
*I *4928:A I *D sky130_fd_sc_hd__ebufn_1
*I *4926:A I *D sky130_fd_sc_hd__ebufn_1
*I *4937:LO O *D sky130_fd_sc_hd__conb_1
*CAP
1 *4913:A 0
2 *4924:A 0
3 *4935:A 3.40836e-05
4 *4929:A 0
5 *4931:A 0
6 *4933:A 0
7 *4915:A 0.00029444
8 *4930:A 0.000142275
9 *4932:A 0
10 *4934:A 9.57641e-05
11 *4936:A 0
12 *4914:A 0
13 *4916:A 0
14 *4917:A 0
15 *4918:A 0
16 *4919:A 0
17 *4927:A 0.000132296
18 *4920:A 0
19 *4922:A 0
20 *4921:A 6.35533e-05
21 *4923:A 4.83832e-06
22 *4925:A 9.71884e-06
23 *4928:A 0
24 *4926:A 9.50293e-05
25 *4937:LO 0
26 *167:199 0.00010181
27 *167:191 0.000187588
28 *167:184 0.00025057
29 *167:177 0.000227926
30 *167:159 0.000412398
31 *167:143 0.000224901
32 *167:134 0.000318782
33 *167:130 0.00025835
34 *167:128 0.000175096
35 *167:121 0.000193561
36 *167:114 0.000235686
37 *167:107 0.000251879
38 *167:100 0.000252664
39 *167:81 0.000259212
40 *167:75 0.000232548
41 *167:69 0.000245756
42 *167:62 0.000135019
43 *167:55 0.000149885
44 *167:39 0.000190498
45 *167:33 0.000238361
46 *167:19 7.69699e-05
47 *167:6 0.000230344
48 *167:4 0.000150116
49 *4926:A *5242:A 3.09088e-05
50 spine_bot_ow[10] *167:159 2.23342e-05
51 spine_bot_ow[11] *167:159 0
52 spine_bot_ow[15] *167:75 0
53 spine_bot_ow[21] *167:39 1.88656e-05
54 spine_bot_ow[22] *167:19 3.05373e-05
55 *4911:A *4915:A 0.000292282
56 *4911:A *4935:A 0.000238919
57 *4911:A *167:199 4.82863e-05
58 *4918:TE_B *167:75 2.92496e-05
59 *4918:TE_B *167:81 8.69583e-05
60 *4919:TE_B *167:81 0
61 *4923:TE_B *4921:A 0.000231359
62 *4925:TE_B *4925:A 4.82919e-05
63 *4926:TE_B *4926:A 4.66108e-05
64 *4927:TE_B *4927:A 0.00013927
65 *4934:TE_B *4930:A 7.66083e-05
66 *4934:TE_B *4934:A 0.000125262
67 *4934:TE_B *167:143 0.000187894
68 *4999:A *4921:A 0.000178001
69 *4999:A *4923:A 6.24773e-06
70 *5096:DIODE *167:159 0
71 *5224:A *167:134 0
72 *5:45 *4915:A 1.37328e-05
73 *5:45 *4921:A 3.7712e-05
74 *5:45 *4923:A 6.24773e-06
75 *5:45 *4925:A 4.82919e-05
76 *81:26 *167:159 5.92269e-05
77 *82:8 *167:121 2.93678e-05
78 *82:8 *167:128 6.69608e-06
79 *86:22 *167:39 0
80 *86:22 *167:75 0
81 *87:22 *167:39 0
82 *90:8 *167:62 2.93678e-05
83 *90:8 *167:69 6.69608e-06
84 *93:22 *167:39 7.50427e-05
85 *94:22 *167:19 5.2912e-05
86 *99:8 *167:191 2.75145e-05
87 *100:10 *167:199 8.40439e-05
88 *102:8 *4930:A 2.86975e-05
89 *166:14 *167:199 0.000158297
90 *166:18 *167:191 0.000198155
91 *166:20 *167:191 4.82863e-05
92 *166:22 *167:184 0.000236459
93 *166:22 *167:191 7.66083e-05
94 *166:24 *167:128 0.000124105
95 *166:24 *167:177 0.000226373
96 *166:24 *167:184 7.49327e-05
97 *166:26 *167:121 0.000237715
98 *166:26 *167:128 7.55432e-05
99 *166:39 *167:114 0.000239385
100 *166:39 *167:121 7.38676e-05
101 *166:43 *167:107 0.000141323
102 *166:43 *167:114 3.90495e-05
103 *166:47 *167:100 0.000136027
104 *166:47 *167:107 4.27622e-05
105 *166:51 *167:75 0.000129047
106 *166:66 *4927:A 4.43603e-05
107 *166:66 *167:81 0.000232668
108 *166:88 *167:75 1.97535e-05
109 *166:102 *167:62 0.000237715
110 *166:102 *167:69 3.6355e-05
111 *166:102 *167:100 3.57349e-05
112 *166:104 *4926:A 8.52883e-05
113 *166:104 *167:6 0.000150379
114 *166:104 *167:33 0.000188957
115 *166:104 *167:55 7.60921e-05
116 *166:104 *167:62 7.38676e-05
117 *166:117 *167:19 8.53322e-05
118 *166:187 *4930:A 0.00031343
119 *166:219 *4935:A 0.000238919
120 *166:219 *167:199 3.66286e-05
*RES
1 *4937:LO *167:4 1.6 
2 *167:4 *167:6 1.485 
3 *167:6 *4926:A 3.43 
4 *167:6 *167:19 5.89 
5 *167:19 *4928:A 1.6 
6 *167:19 *4925:A 2.05 
7 *167:4 *167:33 1.83 
8 *167:33 *167:39 6.145 
9 *167:39 *4923:A 1.7125 
10 *167:39 *4921:A 4.42 
11 *167:33 *167:55 0.795 
12 *167:55 *4922:A 1.6 
13 *167:55 *167:62 2.865 
14 *167:62 *4920:A 1.6 
15 *167:62 *167:69 0.45 
16 *167:69 *167:75 6.145 
17 *167:75 *167:81 3.33 
18 *167:81 *4927:A 4.465 
19 *167:81 *4919:A 1.6 
20 *167:75 *4918:A 1.6 
21 *167:69 *167:100 2.55 
22 *167:100 *4917:A 1.6 
23 *167:100 *167:107 2.835 
24 *167:107 *4916:A 1.6 
25 *167:107 *167:114 2.865 
26 *167:114 *4914:A 1.6 
27 *167:114 *167:121 2.865 
28 *167:121 *4936:A 1.6 
29 *167:121 *167:128 1.83 
30 *167:128 *167:130 2 
31 *167:130 *167:134 4.145 
32 *167:134 *4934:A 3.43 
33 *167:134 *167:143 1.83 
34 *167:143 *4932:A 1.6 
35 *167:143 *4930:A 5.155 
36 *167:130 *167:159 3.89 
37 *167:159 *4915:A 6.91 
38 *167:159 *4933:A 1.6 
39 *167:128 *167:177 2.175 
40 *167:177 *4931:A 1.6 
41 *167:177 *167:184 2.865 
42 *167:184 *4929:A 1.6 
43 *167:184 *167:191 2.865 
44 *167:191 *167:199 6.34 
45 *167:199 *4935:A 3.775 
46 *167:199 *4924:A 1.6 
47 *167:191 *4913:A 1.6 
*END

*D_NET *169 0.000916949
*CONN
*I *4938:A I *D sky130_fd_sc_hd__bufinv_8
*I *4905:Y O *D sky130_fd_sc_hd__inv_2
*CAP
1 *4938:A 0.000302107
2 *4905:Y 0.000302107
3 *4938:A *203:10 0
4 *4938:A *242:8 0.000312735
*RES
1 *4905:Y *4938:A 11.7 
*END

*D_NET *170 0.0201709
*CONN
*I *4950:TE_B I *D sky130_fd_sc_hd__ebufn_1
*I *4955:TE_B I *D sky130_fd_sc_hd__ebufn_1
*I *4956:TE_B I *D sky130_fd_sc_hd__ebufn_1
*I *4957:TE_B I *D sky130_fd_sc_hd__ebufn_1
*I *4958:TE_B I *D sky130_fd_sc_hd__ebufn_1
*I *4961:TE_B I *D sky130_fd_sc_hd__ebufn_1
*I *4962:TE_B I *D sky130_fd_sc_hd__ebufn_1
*I *4940:TE_B I *D sky130_fd_sc_hd__ebufn_1
*I *4959:TE_B I *D sky130_fd_sc_hd__ebufn_1
*I *4941:TE_B I *D sky130_fd_sc_hd__ebufn_1
*I *4942:TE_B I *D sky130_fd_sc_hd__ebufn_1
*I *4946:TE_B I *D sky130_fd_sc_hd__ebufn_1
*I *4947:TE_B I *D sky130_fd_sc_hd__ebufn_1
*I *4944:TE_B I *D sky130_fd_sc_hd__ebufn_1
*I *4952:TE_B I *D sky130_fd_sc_hd__ebufn_1
*I *4948:TE_B I *D sky130_fd_sc_hd__ebufn_1
*I *4949:TE_B I *D sky130_fd_sc_hd__ebufn_1
*I *4954:TE_B I *D sky130_fd_sc_hd__ebufn_1
*I *4951:TE_B I *D sky130_fd_sc_hd__ebufn_1
*I *4945:TE_B I *D sky130_fd_sc_hd__ebufn_1
*I *4953:TE_B I *D sky130_fd_sc_hd__ebufn_1
*I *4960:TE_B I *D sky130_fd_sc_hd__ebufn_1
*I *4943:TE_B I *D sky130_fd_sc_hd__ebufn_1
*I *4939:TE_B I *D sky130_fd_sc_hd__ebufn_1
*I *4938:Y O *D sky130_fd_sc_hd__bufinv_8
*CAP
1 *4950:TE_B 0.000166411
2 *4955:TE_B 0
3 *4956:TE_B 0
4 *4957:TE_B 0
5 *4958:TE_B 0
6 *4961:TE_B 0.000139664
7 *4962:TE_B 0
8 *4940:TE_B 0.000122634
9 *4959:TE_B 6.09565e-05
10 *4941:TE_B 0
11 *4942:TE_B 0
12 *4946:TE_B 0
13 *4947:TE_B 8.17561e-05
14 *4944:TE_B 0
15 *4952:TE_B 0.000126487
16 *4948:TE_B 5.31076e-05
17 *4949:TE_B 0
18 *4954:TE_B 7.04374e-05
19 *4951:TE_B 0.000148927
20 *4945:TE_B 0
21 *4953:TE_B 0.000102714
22 *4960:TE_B 0
23 *4943:TE_B 9.50846e-05
24 *4939:TE_B 0
25 *4938:Y 0.000340152
26 *170:203 0.000236526
27 *170:194 0.000339344
28 *170:129 7.01428e-05
29 *170:120 8.74727e-05
30 *170:107 0.00034824
31 *170:105 0.000535051
32 *170:85 0.000238975
33 *170:83 0.000359652
34 *170:81 0.000263329
35 *170:75 0.000412402
36 *170:73 0.000372907
37 *170:67 0.000412405
38 *170:65 0.000492226
39 *170:57 0.000432228
40 *170:55 0.000491368
41 *170:41 0.00027318
42 *170:31 0.000549615
43 *170:29 0.000100481
44 *170:27 0.000289902
45 *170:25 0.0002761
46 *170:23 0.000141228
47 *170:19 0.000288191
48 *170:10 0.000407383
49 *4940:TE_B *5233:A1 0.000155444
50 *4940:TE_B *171:105 0.000331033
51 *4943:TE_B *171:51 0.000579417
52 *4943:TE_B *171:58 7.57202e-05
53 *4943:TE_B *242:8 0.000655137
54 *4947:TE_B *309:16 0.000204907
55 *4948:TE_B *5238:A 0.000300613
56 *4948:TE_B *171:23 0.000238226
57 *4950:TE_B *5228:A1 2.75229e-05
58 *4950:TE_B *238:105 0.000125079
59 *4950:TE_B *238:118 1.22676e-05
60 *4951:TE_B *5178:S 0.000198046
61 *4951:TE_B *5201:A0 6.95505e-05
62 *4951:TE_B *171:15 0.00019637
63 *4951:TE_B *171:21 0
64 *4952:TE_B *4952:A 0.000121437
65 *4953:TE_B *5202:A1 0
66 *4953:TE_B *5209:A 0.000179564
67 *4954:TE_B *4954:A 0.000234674
68 *4954:TE_B *5238:A 0.000311282
69 *4961:TE_B *4961:A 0.000314687
70 *4961:TE_B *171:194 4.46731e-05
71 *170:10 *5227:A1 3.72916e-05
72 *170:10 *238:105 2.97004e-06
73 *170:19 *238:105 6.95422e-05
74 *170:23 *241:6 7.10578e-05
75 *170:25 *4955:A 3.74161e-05
76 *170:25 *171:213 8.49205e-05
77 *170:25 *241:6 4.35348e-05
78 *170:27 *171:213 0.000418498
79 *170:29 *4958:A 0.000120655
80 *170:29 *171:73 0.000111461
81 *170:29 *171:213 7.66083e-05
82 *170:29 *306:18 0.00015639
83 *170:41 *5197:A0 0.000119483
84 *170:41 *5231:A0 8.53113e-06
85 *170:41 *5233:A0 8.76846e-05
86 *170:41 *171:58 0.000421062
87 *170:41 *242:8 0.000411085
88 *170:55 *5197:A0 0.000273887
89 *170:55 *5233:A0 0.000195548
90 *170:55 *171:88 0
91 *170:55 *238:46 5.69248e-06
92 *170:55 *304:28 0.000155574
93 *170:65 *171:115 4.99619e-05
94 *170:67 *171:115 7.40446e-05
95 *170:67 *171:117 0.000239901
96 *170:73 *5171:A1 4.82863e-05
97 *170:73 *171:117 3.90495e-05
98 *170:73 *171:119 0.000198908
99 *170:75 *171:119 7.66083e-05
100 *170:75 *171:121 0.000119762
101 *170:81 *171:121 3.51884e-05
102 *170:81 *171:123 0.000130809
103 *170:83 *171:123 4.82919e-05
104 *170:85 *4945:A 0.000233992
105 *170:85 *171:123 3.66286e-05
106 *170:85 *171:125 3.74161e-05
107 *170:105 *4952:A 0.00017944
108 *170:105 *5201:A0 4.24292e-06
109 *170:105 *5201:A1 0
110 *170:107 *5201:A0 0.00014202
111 *170:129 *4954:A 4.82919e-05
112 *170:129 *5238:A 0.000114024
113 *170:129 *171:23 7.66083e-05
114 *170:194 *171:99 0
115 *170:203 *171:105 0.000112267
116 *170:203 *171:194 2.16917e-05
117 spine_top_ow[16] *4947:TE_B 2.49909e-05
118 spine_top_ow[1] *4950:TE_B 0.000109412
119 spine_top_ow[21] *4951:TE_B 9.82856e-06
120 spine_top_ow[6] *170:55 0
121 spine_top_ow[8] *170:55 0
122 spine_top_ow[8] *170:194 0
123 *5043:A *170:65 1.46744e-05
124 *5045:A *4959:TE_B 0.000163204
125 *5045:A *170:65 0.000266288
126 *5047:A *4950:TE_B 1.83847e-05
127 *5047:A *4952:TE_B 6.19997e-05
128 *5114:DIODE *4950:TE_B 4.43871e-06
129 *5120:DIODE *4940:TE_B 4.82863e-05
130 *5169:A *170:73 0.000163204
131 *5180:A *170:65 8.65905e-05
132 *5181:A *170:65 0.00012657
133 *5184:A *170:81 0.000125264
134 *5194:A *4961:TE_B 4.25093e-05
135 *5194:A *170:203 4.92062e-05
136 *5218:A *170:10 0
137 *5225:A *170:10 6.44307e-05
138 *5225:A *170:19 3.46842e-05
139 *143:10 *4953:TE_B 0
140 *147:19 *4950:TE_B 2.9664e-05
141 *147:19 *170:19 4.28483e-05
142 *148:8 *4948:TE_B 2.8185e-05
143 *148:21 *4947:TE_B 0.000180682
144 *159:10 *170:194 0.000113416
145 *159:19 *4940:TE_B 3.57349e-05
146 *159:19 *170:203 4.77757e-05
*RES
1 *4938:Y *170:10 9.39 
2 *170:10 *4939:TE_B 3.6 
3 *170:10 *170:19 2.145 
4 *170:19 *170:23 3.14 
5 *170:23 *170:25 1.83 
6 *170:25 *170:27 3.9 
7 *170:27 *170:29 2.865 
8 *170:29 *170:31 2 
9 *170:31 *170:41 8.6 
10 *170:41 *4943:TE_B 7.57 
11 *170:41 *4960:TE_B 1.6 
12 *170:31 *170:55 8.265 
13 *170:55 *170:57 2 
14 *170:57 *170:65 7.14 
15 *170:65 *170:67 2.865 
16 *170:67 *170:73 6 
17 *170:73 *170:75 1.83 
18 *170:75 *170:81 4.62 
19 *170:81 *170:83 0.45 
20 *170:83 *170:85 2.865 
21 *170:85 *4953:TE_B 7.745 
22 *170:85 *4945:TE_B 1.6 
23 *170:83 *170:105 6.185 
24 *170:105 *170:107 4.185 
25 *170:107 *4951:TE_B 7.575 
26 *170:107 *170:120 2 
27 *170:120 *4954:TE_B 4.465 
28 *170:120 *170:129 1.14 
29 *170:129 *4949:TE_B 1.6 
30 *170:129 *4948:TE_B 4.465 
31 *170:105 *4952:TE_B 6.12 
32 *170:81 *4944:TE_B 1.6 
33 *170:75 *4947:TE_B 8.195 
34 *170:73 *4946:TE_B 1.6 
35 *170:67 *4942:TE_B 1.6 
36 *170:65 *4941:TE_B 1.6 
37 *170:57 *4959:TE_B 3.085 
38 *170:55 *170:194 4.145 
39 *170:194 *4940:TE_B 5.5 
40 *170:194 *170:203 2.52 
41 *170:203 *4962:TE_B 1.6 
42 *170:203 *4961:TE_B 5.155 
43 *170:29 *4958:TE_B 1.6 
44 *170:27 *4957:TE_B 1.6 
45 *170:25 *4956:TE_B 1.6 
46 *170:23 *4955:TE_B 1.6 
47 *170:19 *4950:TE_B 8.235 
*END

*D_NET *171 0.0230725
*CONN
*I *4939:A I *D sky130_fd_sc_hd__ebufn_1
*I *4955:A I *D sky130_fd_sc_hd__ebufn_1
*I *4956:A I *D sky130_fd_sc_hd__ebufn_1
*I *4957:A I *D sky130_fd_sc_hd__ebufn_1
*I *4961:A I *D sky130_fd_sc_hd__ebufn_1
*I *4962:A I *D sky130_fd_sc_hd__ebufn_1
*I *4940:A I *D sky130_fd_sc_hd__ebufn_1
*I *4941:A I *D sky130_fd_sc_hd__ebufn_1
*I *4942:A I *D sky130_fd_sc_hd__ebufn_1
*I *4946:A I *D sky130_fd_sc_hd__ebufn_1
*I *4947:A I *D sky130_fd_sc_hd__ebufn_1
*I *4953:A I *D sky130_fd_sc_hd__ebufn_1
*I *4944:A I *D sky130_fd_sc_hd__ebufn_1
*I *4952:A I *D sky130_fd_sc_hd__ebufn_1
*I *4945:A I *D sky130_fd_sc_hd__ebufn_1
*I *4959:A I *D sky130_fd_sc_hd__ebufn_1
*I *4950:A I *D sky130_fd_sc_hd__ebufn_1
*I *4958:A I *D sky130_fd_sc_hd__ebufn_1
*I *4960:A I *D sky130_fd_sc_hd__ebufn_1
*I *4943:A I *D sky130_fd_sc_hd__ebufn_1
*I *4948:A I *D sky130_fd_sc_hd__ebufn_1
*I *4949:A I *D sky130_fd_sc_hd__ebufn_1
*I *4954:A I *D sky130_fd_sc_hd__ebufn_1
*I *4951:A I *D sky130_fd_sc_hd__ebufn_1
*I *4963:LO O *D sky130_fd_sc_hd__conb_1
*CAP
1 *4939:A 0.00031891
2 *4955:A 8.12594e-06
3 *4956:A 0
4 *4957:A 0
5 *4961:A 0.000142833
6 *4962:A 0
7 *4940:A 0
8 *4941:A 0
9 *4942:A 0
10 *4946:A 0
11 *4947:A 0
12 *4953:A 0.000125918
13 *4944:A 0
14 *4952:A 0.000186448
15 *4945:A 7.72016e-05
16 *4959:A 0
17 *4950:A 0.000336375
18 *4958:A 4.65685e-05
19 *4960:A 0
20 *4943:A 0
21 *4948:A 0
22 *4949:A 0
23 *4954:A 0.000122483
24 *4951:A 0
25 *4963:LO 4.97198e-05
26 *171:213 0.000119796
27 *171:194 0.000225746
28 *171:158 0.000205202
29 *171:125 0.000271776
30 *171:123 7.13381e-05
31 *171:121 0.000193212
32 *171:119 0.000132608
33 *171:117 0.000121482
34 *171:115 0.000244773
35 *171:105 0.000518895
36 *171:99 0.000555572
37 *171:88 0.000442257
38 *171:77 0.000791062
39 *171:73 0.000308048
40 *171:64 0.000131373
41 *171:58 0.000617582
42 *171:51 0.000497915
43 *171:44 0.000623102
44 *171:23 0.000234497
45 *171:21 0.000219946
46 *171:15 0.000726706
47 *171:6 0.000304438
48 *4939:A *5228:A0 4.99619e-05
49 *4939:A *5229:A0 2.31651e-05
50 *4939:A *5229:A1 3.4687e-05
51 *4939:A *5230:A1 0.000229536
52 *4939:A *5231:A1 0.000118081
53 *4939:A *5231:S 0.000256182
54 *4939:A *238:82 0.00033764
55 *4939:A *238:105 4.471e-05
56 *4939:A *242:8 1.61831e-05
57 *4950:A *5228:A1 6.97118e-05
58 *4950:A *304:28 0.000266721
59 *4952:A *5201:A0 0.000159964
60 *4952:A *5202:A1 7.44375e-05
61 *4953:A *309:16 0.000576624
62 *4955:A *241:6 4.82919e-05
63 *4958:A *241:6 0.0001947
64 *4958:A *306:18 4.21973e-05
65 *171:6 *5178:S 7.60965e-05
66 *171:15 *5178:S 0.000246312
67 *171:44 *5174:A1 0.000162311
68 *171:44 *5178:S 0.000105624
69 *171:44 *242:8 4.85494e-05
70 *171:51 *242:8 4.60584e-05
71 *171:58 *5231:A1 0.000122325
72 *171:58 *5231:S 8.57024e-05
73 *171:58 *242:8 3.51884e-05
74 *171:64 *5233:A0 0.000179015
75 *171:64 *306:18 0.000137578
76 *171:73 *241:6 0.000120655
77 *171:77 *5196:A0 0
78 *171:88 *5196:A0 0
79 *171:88 *5196:S 0
80 *171:88 *304:28 0
81 *171:158 *309:16 3.66286e-05
82 *171:213 *241:6 0.000567481
83 spine_top_ow[16] *4953:A 0.000185328
84 spine_top_ow[16] *171:158 2.75145e-05
85 spine_top_ow[6] *171:77 0.0002954
86 spine_top_ow[6] *171:88 3.18735e-05
87 *4940:TE_B *171:105 0.000331033
88 *4943:TE_B *171:51 0.000579417
89 *4943:TE_B *171:58 7.57202e-05
90 *4948:TE_B *171:23 0.000238226
91 *4951:TE_B *171:15 0.00019637
92 *4951:TE_B *171:21 0
93 *4952:TE_B *4952:A 0.000121437
94 *4954:TE_B *4954:A 0.000234674
95 *4961:TE_B *4961:A 0.000314687
96 *4961:TE_B *171:194 4.46731e-05
97 *5043:A *4945:A 0.000307138
98 *5043:A *171:115 0.000122331
99 *5043:A *171:117 0.00031651
100 *5043:A *171:119 0.000583656
101 *5043:A *171:121 0.000191232
102 *5043:A *171:123 0.000429746
103 *5043:A *171:125 4.82919e-05
104 *5047:A *4950:A 0.000119645
105 *5047:A *4952:A 6.51658e-05
106 *5119:DIODE *171:64 2.15594e-05
107 *5119:DIODE *171:77 5.16418e-05
108 *5120:DIODE *171:105 4.82863e-05
109 *5124:DIODE *171:105 4.99619e-05
110 *5130:DIODE *4953:A 0.000123319
111 *5157:A *171:21 8.5225e-05
112 *5157:A *171:44 8.65961e-05
113 *5169:A *171:119 0.000163204
114 *5180:A *171:115 0
115 *5182:A *171:115 2.59981e-05
116 *5184:A *171:123 0.000125264
117 *5194:A *171:88 4.18603e-06
118 *5194:A *171:99 5.12942e-05
119 *5218:A *4939:A 0.0001249
120 *24:32 *171:115 8.53113e-06
121 *137:10 *171:105 8.77498e-05
122 *139:8 *171:115 7.89689e-05
123 *140:21 *171:115 7.89689e-05
124 *142:22 *171:158 6.10014e-05
125 *148:8 *171:23 2.75145e-05
126 *148:21 *171:158 0.000158297
127 *149:24 *171:15 5.05521e-05
128 *159:19 *171:105 8.41307e-05
129 *160:8 *171:58 4.92062e-05
130 *161:6 *4961:A 5.2397e-05
131 *170:25 *4955:A 3.74161e-05
132 *170:25 *171:213 8.49205e-05
133 *170:27 *171:213 0.000418498
134 *170:29 *4958:A 0.000120655
135 *170:29 *171:73 0.000111461
136 *170:29 *171:213 7.66083e-05
137 *170:41 *171:58 0.000421062
138 *170:55 *171:88 0
139 *170:65 *171:115 4.99619e-05
140 *170:67 *171:115 7.40446e-05
141 *170:67 *171:117 0.000239901
142 *170:73 *171:117 3.90495e-05
143 *170:73 *171:119 0.000198908
144 *170:75 *171:119 7.66083e-05
145 *170:75 *171:121 0.000119762
146 *170:81 *171:121 3.51884e-05
147 *170:81 *171:123 0.000130809
148 *170:83 *171:123 4.82919e-05
149 *170:85 *4945:A 0.000233992
150 *170:85 *171:123 3.66286e-05
151 *170:85 *171:125 3.74161e-05
152 *170:105 *4952:A 0.00017944
153 *170:129 *4954:A 4.82919e-05
154 *170:129 *171:23 7.66083e-05
155 *170:194 *171:99 0
156 *170:203 *171:105 0.000112267
157 *170:203 *171:194 2.16917e-05
*RES
1 *4963:LO *171:6 2.74 
2 *171:6 *4951:A 1.6 
3 *171:6 *171:15 5.985 
4 *171:15 *171:21 5.89 
5 *171:21 *171:23 2.865 
6 *171:23 *4954:A 4.12 
7 *171:23 *4949:A 1.6 
8 *171:21 *4948:A 1.6 
9 *171:15 *171:44 6.675 
10 *171:44 *4943:A 1.6 
11 *171:44 *171:51 5.97 
12 *171:51 *4960:A 1.6 
13 *171:51 *171:58 5.97 
14 *171:58 *171:64 6.145 
15 *171:64 *4958:A 3.43 
16 *171:64 *171:73 1.14 
17 *171:73 *171:77 5.93 
18 *171:77 *4950:A 10.605 
19 *171:77 *171:88 4.185 
20 *171:88 *4959:A 3.6 
21 *171:88 *171:99 4.655 
22 *171:99 *171:105 7.125 
23 *171:105 *171:115 8.77 
24 *171:115 *171:117 2.865 
25 *171:117 *171:119 5.28 
26 *171:119 *171:121 1.83 
27 *171:121 *171:123 3.9 
28 *171:123 *171:125 0.45 
29 *171:125 *4945:A 4.465 
30 *171:125 *4952:A 10.925 
31 *171:123 *4944:A 1.6 
32 *171:121 *171:158 6.34 
33 *171:158 *4953:A 6.88 
34 *171:158 *4947:A 1.6 
35 *171:119 *4946:A 1.6 
36 *171:117 *4942:A 1.6 
37 *171:115 *4941:A 1.6 
38 *171:105 *4940:A 1.6 
39 *171:99 *171:194 1.5 
40 *171:194 *4962:A 1.6 
41 *171:194 *4961:A 5.155 
42 *171:73 *4957:A 1.6 
43 *171:73 *171:213 5.28 
44 *171:213 *4956:A 1.6 
45 *171:213 *4955:A 2.05 
46 *171:58 *4939:A 10.12 
*END

*D_NET *173 0.0188801
*CONN
*I *4965:B I *D sky130_fd_sc_hd__and2_2
*I *4973:B I *D sky130_fd_sc_hd__and2_2
*I *4975:B I *D sky130_fd_sc_hd__and2_2
*I *4979:B I *D sky130_fd_sc_hd__and2_2
*I *4977:B I *D sky130_fd_sc_hd__and2_2
*I *4981:B I *D sky130_fd_sc_hd__and2_2
*I *4971:B I *D sky130_fd_sc_hd__and2_2
*I *4964:A I *D sky130_fd_sc_hd__buf_8
*I *4969:B I *D sky130_fd_sc_hd__and2_2
*I *4967:B I *D sky130_fd_sc_hd__and2_2
*I *4983:B I *D sky130_fd_sc_hd__and2_2
*I *4985:B I *D sky130_fd_sc_hd__and2_2
*I *4987:B I *D sky130_fd_sc_hd__and2_2
*I *4989:B I *D sky130_fd_sc_hd__and2_2
*I *4991:B I *D sky130_fd_sc_hd__and2_2
*I *4993:B I *D sky130_fd_sc_hd__and2_2
*I *4995:B I *D sky130_fd_sc_hd__and2_2
*I *4997:B I *D sky130_fd_sc_hd__and2_2
*I *4904:A I *D sky130_fd_sc_hd__inv_2
*I *4999:B I *D sky130_fd_sc_hd__and2_2
*I *5089:X O *D sky130_fd_sc_hd__buf_8
*CAP
1 *4965:B 5.73689e-05
2 *4973:B 0
3 *4975:B 0
4 *4979:B 0.000150994
5 *4977:B 0
6 *4981:B 0.0003619
7 *4971:B 0
8 *4964:A 0.00025122
9 *4969:B 0.000151357
10 *4967:B 0
11 *4983:B 0
12 *4985:B 1.04051e-05
13 *4987:B 0
14 *4989:B 0
15 *4991:B 0.000101321
16 *4993:B 1.88809e-05
17 *4995:B 0.000112135
18 *4997:B 0
19 *4904:A 8.41587e-05
20 *4999:B 0.000152661
21 *5089:X 0
22 *173:191 0.000313111
23 *173:170 0.000646694
24 *173:168 0.000245939
25 *173:166 0.000295516
26 *173:153 0.00093602
27 *173:129 0.000561293
28 *173:125 0.001057
29 *173:123 0.000447672
30 *173:112 0.000551927
31 *173:93 0.000338802
32 *173:82 0.000111039
33 *173:73 0.000122652
34 *173:66 9.56004e-05
35 *173:53 0.000324713
36 *173:42 0.000789973
37 *173:21 0.000196293
38 *173:8 0.000663313
39 *173:4 0.00108927
40 *4981:B *4982:A 1.08758e-05
41 *4991:B *4990:A 4.70256e-05
42 *4995:B *4998:A 9.21436e-05
43 *4999:B *4998:A 0
44 *173:8 *5089:A 1.70935e-05
45 *173:42 *4994:A 1.83847e-05
46 *173:112 *4968:A 3.72916e-05
47 *173:112 *5081:CLK 0.000163961
48 *173:112 *5081:D 5.96859e-05
49 *173:112 *5082:CLK 0
50 *173:123 *4968:A 2.17931e-05
51 *173:125 *4966:A 0
52 *173:129 *4966:A 0
53 *173:153 *4972:A 0
54 *173:153 *4974:A 0
55 *173:168 *4974:A 5.05437e-05
56 *173:191 *4978:A 5.14335e-05
57 spine_bot_iw[10] *173:112 4.33044e-05
58 spine_bot_iw[11] *173:129 0
59 spine_bot_iw[12] *173:153 0
60 spine_bot_iw[20] *173:191 0
61 spine_bot_iw[6] *173:129 0
62 spine_bot_iw[7] *173:123 0.000706593
63 spine_bot_iw[7] *173:125 0.000296504
64 spine_bot_iw[7] *173:129 0.000128212
65 *4911:A *4999:B 4.99619e-05
66 *4967:A *173:123 0.000347017
67 *4969:A *4964:A 0.000652269
68 *4969:A *4969:B 0.000388555
69 *4971:A *173:166 3.70488e-05
70 *4973:A *173:166 0.000170402
71 *4975:A *4965:B 0.000349592
72 *4975:A *173:191 0
73 *4977:A *4965:B 0.000349592
74 *4977:A *4979:B 1.67131e-05
75 *4985:A *173:112 0.000106897
76 *4989:A *173:53 0
77 *4989:A *173:73 0.000161204
78 *4989:A *173:82 0.000241483
79 *4989:A *173:93 0.000241483
80 *4989:A *173:112 0.00070819
81 *4991:A *173:112 8.65961e-05
82 *4991:A *173:123 0.000421062
83 *4993:A *4993:B 5.4155e-06
84 *4993:A *173:53 0.000182888
85 *4993:A *173:66 8.65961e-05
86 *4993:A *173:73 0.000344737
87 *4993:A *173:82 0.000134314
88 *4993:A *173:93 0.000131166
89 *4993:A *173:112 0.000564125
90 *4995:A *173:8 0
91 *5078:CLK *4979:B 9.29176e-05
92 *5078:CLK *173:191 2.75145e-05
93 *5078:RESET_B *173:123 0.0001369
94 *5078:RESET_B *173:125 0.000197788
95 *5083:RESET_B *4991:B 0
96 *24:54 *4904:A 8.64421e-05
97 *164:78 *173:123 0.000219692
98 *164:80 *173:123 0.00035749
*RES
1 *5089:X *173:4 1.6 
2 *173:4 *173:8 10.52 
3 *173:8 *4999:B 5.94 
4 *173:8 *173:21 2 
5 *173:21 *4904:A 3.085 
6 *173:21 *4997:B 1.6 
7 *173:21 *4995:B 3.775 
8 *173:4 *173:42 8.385 
9 *173:42 *4993:B 1.96 
10 *173:42 *173:53 3.915 
11 *173:53 *4991:B 7.49 
12 *173:53 *173:66 0.795 
13 *173:66 *4989:B 1.6 
14 *173:66 *173:73 3.21 
15 *173:73 *4987:B 1.6 
16 *173:73 *173:82 2.535 
17 *173:82 *4985:B 1.96 
18 *173:82 *173:93 2.535 
19 *173:93 *4983:B 1.6 
20 *173:93 *173:112 16.045 
21 *173:112 *4967:B 1.6 
22 *173:112 *173:123 14.165 
23 *173:123 *173:125 3.675 
24 *173:125 *173:129 4.91 
25 *173:129 *4969:B 5.155 
26 *173:129 *4964:A 7.57 
27 *173:125 *173:153 14.385 
28 *173:153 *4971:B 1.6 
29 *173:153 *173:166 4.035 
30 *173:166 *173:168 2.175 
31 *173:168 *173:170 1.83 
32 *173:170 *4981:B 7.015 
33 *173:170 *173:191 6.85 
34 *173:191 *4977:B 1.6 
35 *173:191 *4979:B 4.495 
36 *173:168 *4975:B 1.6 
37 *173:166 *4973:B 1.6 
38 *173:123 *4965:B 6.81 
*END

*D_NET *174 0.000640918
*CONN
*I *4966:A I *D sky130_fd_sc_hd__buf_8
*I *4965:X O *D sky130_fd_sc_hd__and2_2
*CAP
1 *4966:A 0.000175858
2 *4965:X 0.000175858
3 spine_bot_iw[6] *4966:A 0.000289202
4 *5078:RESET_B *4966:A 0
5 *173:125 *4966:A 0
6 *173:129 *4966:A 0
*RES
1 *4965:X *4966:A 10.62 
*END

*D_NET *175 0.000902075
*CONN
*I *4968:A I *D sky130_fd_sc_hd__buf_8
*I *4967:X O *D sky130_fd_sc_hd__and2_2
*CAP
1 *4968:A 0.000232954
2 *4967:X 0.000232954
3 *4968:A *5080:CLK 7.75325e-05
4 spine_bot_iw[10] *4968:A 0.000293719
5 spine_bot_iw[9] *4968:A 0
6 *4967:A *4968:A 5.83121e-06
7 *173:112 *4968:A 3.72916e-05
8 *173:123 *4968:A 2.17931e-05
*RES
1 *4967:X *4968:A 12.105 
*END

*D_NET *176 0.000369998
*CONN
*I *4970:A I *D sky130_fd_sc_hd__buf_8
*I *4969:X O *D sky130_fd_sc_hd__and2_2
*CAP
1 *4970:A 0.0001588
2 *4969:X 0.0001588
3 spine_bot_iw[13] *4970:A 0
4 spine_bot_iw[7] *4970:A 0
5 spine_bot_iw[8] *4970:A 0
6 *4969:A *4970:A 5.2397e-05
*RES
1 *4969:X *4970:A 9.63 
*END

*D_NET *177 0.000952109
*CONN
*I *4972:A I *D sky130_fd_sc_hd__buf_8
*I *4971:X O *D sky130_fd_sc_hd__and2_2
*CAP
1 *4972:A 0.000289528
2 *4971:X 0.000289528
3 spine_bot_iw[13] *4972:A 0.00021116
4 *4971:A *4972:A 0.000161893
5 *173:153 *4972:A 0
*RES
1 *4971:X *4972:A 12.36 
*END

*D_NET *178 0.000356805
*CONN
*I *4974:A I *D sky130_fd_sc_hd__buf_8
*I *4973:X O *D sky130_fd_sc_hd__and2_2
*CAP
1 *4974:A 0.000149814
2 *4973:X 0.000149814
3 *4974:A *4976:A 0
4 spine_bot_iw[17] *4974:A 6.63219e-06
5 *173:153 *4974:A 0
6 *173:168 *4974:A 5.05437e-05
*RES
1 *4973:X *4974:A 9.375 
*END

*D_NET *179 0.000463595
*CONN
*I *4976:A I *D sky130_fd_sc_hd__buf_8
*I *4975:X O *D sky130_fd_sc_hd__and2_2
*CAP
1 *4976:A 0.000231798
2 *4975:X 0.000231798
3 spine_bot_iw[16] *4976:A 0
4 spine_bot_iw[18] *4976:A 0
5 spine_bot_iw[19] *4976:A 0
6 spine_bot_iw[20] *4976:A 0
7 *4974:A *4976:A 0
*RES
1 *4975:X *4976:A 10.875 
*END

*D_NET *180 0.000726698
*CONN
*I *4978:A I *D sky130_fd_sc_hd__buf_8
*I *4977:X O *D sky130_fd_sc_hd__and2_2
*CAP
1 *4978:A 0.000153873
2 *4977:X 0.000153873
3 spine_bot_iw[18] *4978:A 7.35868e-05
4 spine_bot_iw[20] *4978:A 0.000293931
5 *173:191 *4978:A 5.14335e-05
*RES
1 *4977:X *4978:A 11.415 
*END

*D_NET *181 0.0002178
*CONN
*I *4980:A I *D sky130_fd_sc_hd__buf_8
*I *4979:X O *D sky130_fd_sc_hd__and2_2
*CAP
1 *4980:A 0.000103853
2 *4979:X 0.000103853
3 spine_bot_iw[20] *4980:A 0
4 *4981:A *4980:A 1.00941e-05
*RES
1 *4979:X *4980:A 8.835 
*END

*D_NET *182 0.000334221
*CONN
*I *4982:A I *D sky130_fd_sc_hd__buf_8
*I *4981:X O *D sky130_fd_sc_hd__and2_2
*CAP
1 *4982:A 0.000161673
2 *4981:X 0.000161673
3 spine_bot_iw[20] *4982:A 0
4 *4981:B *4982:A 1.08758e-05
*RES
1 *4981:X *4982:A 9.375 
*END

*D_NET *183 0.000671944
*CONN
*I *4984:A I *D sky130_fd_sc_hd__buf_8
*I *4983:X O *D sky130_fd_sc_hd__and2_2
*CAP
1 *4984:A 0.000292677
2 *4983:X 0.000292677
3 *4984:A *4986:A 0
4 *4993:A *4984:A 8.65905e-05
*RES
1 *4983:X *4984:A 11.67 
*END

*D_NET *184 0.000309901
*CONN
*I *4986:A I *D sky130_fd_sc_hd__buf_8
*I *4985:X O *D sky130_fd_sc_hd__and2_2
*CAP
1 *4986:A 0.000117456
2 *4985:X 0.000117456
3 *4986:A *4988:A 0
4 *4984:A *4986:A 0
5 *4987:A *4986:A 2.67022e-05
6 *4993:A *4986:A 4.82863e-05
*RES
1 *4985:X *4986:A 9.03 
*END

*D_NET *185 0.000696608
*CONN
*I *4988:A I *D sky130_fd_sc_hd__buf_8
*I *4987:X O *D sky130_fd_sc_hd__and2_2
*CAP
1 *4988:A 0.000243324
2 *4987:X 0.000243324
3 *4988:A *4990:A 0
4 spine_bot_iw[21] *4988:A 8.47169e-05
5 *4986:A *4988:A 0
6 *4987:A *4988:A 3.86529e-05
7 *4993:A *4988:A 8.65905e-05
*RES
1 *4987:X *4988:A 11.67 
*END

*D_NET *186 0.00106857
*CONN
*I *4990:A I *D sky130_fd_sc_hd__buf_8
*I *4989:X O *D sky130_fd_sc_hd__and2_2
*CAP
1 *4990:A 0.000377525
2 *4989:X 0.000377525
3 *4990:A *4992:A 0
4 spine_bot_iw[21] *4990:A 0
5 spine_bot_iw[22] *4990:A 0.000143266
6 spine_bot_iw[24] *4990:A 0
7 *4988:A *4990:A 0
8 *4991:B *4990:A 4.70256e-05
9 *4993:A *4990:A 0.000123225
*RES
1 *4989:X *4990:A 13.8 
*END

*D_NET *187 0.000294216
*CONN
*I *4992:A I *D sky130_fd_sc_hd__buf_8
*I *4991:X O *D sky130_fd_sc_hd__and2_2
*CAP
1 *4992:A 0.000147108
2 *4991:X 0.000147108
3 spine_bot_iw[24] *4992:A 0
4 spine_bot_iw[25] *4992:A 0
5 *4990:A *4992:A 0
6 *5083:RESET_B *4992:A 0
*RES
1 *4991:X *4992:A 9.285 
*END

*D_NET *188 0.000276006
*CONN
*I *4994:A I *D sky130_fd_sc_hd__buf_8
*I *4993:X O *D sky130_fd_sc_hd__and2_2
*CAP
1 *4994:A 0.000105298
2 *4993:X 0.000105298
3 *5083:RESET_B *4994:A 4.70256e-05
4 *173:42 *4994:A 1.83847e-05
*RES
1 *4993:X *4994:A 9.03 
*END

*D_NET *189 0.000835003
*CONN
*I *4996:A I *D sky130_fd_sc_hd__buf_8
*I *4995:X O *D sky130_fd_sc_hd__and2_2
*CAP
1 *4996:A 0.000364968
2 *4995:X 0.000364968
3 spine_bot_iw[27] *4996:A 0.000105068
*RES
1 *4995:X *4996:A 12.705 
*END

*D_NET *190 0.000578846
*CONN
*I *4998:A I *D sky130_fd_sc_hd__buf_8
*I *4997:X O *D sky130_fd_sc_hd__and2_2
*CAP
1 *4998:A 0.000243351
2 *4997:X 0.000243351
3 *4995:B *4998:A 9.21436e-05
4 *4999:B *4998:A 0
*RES
1 *4997:X *4998:A 10.41 
*END

*D_NET *191 0.000327765
*CONN
*I *5000:A I *D sky130_fd_sc_hd__buf_8
*I *4999:X O *D sky130_fd_sc_hd__and2_2
*CAP
1 *5000:A 0.000139995
2 *4999:X 0.000139995
3 *5078:CLK *5000:A 4.77757e-05
*RES
1 *4999:X *5000:A 9.285 
*END

*D_NET *192 0.00934562
*CONN
*I *5049:A I *D sky130_fd_sc_hd__buf_8
*I *5001:A I *D sky130_fd_sc_hd__buf_8
*I *5078:Q O *D sky130_fd_sc_hd__dfrbp_2
*CAP
1 *5049:A 0
2 *5001:A 5.93895e-05
3 *5078:Q 0.000332265
4 *192:19 0.00386029
5 *192:8 0.00425194
6 *192:19 *5003:A 0
7 *192:19 *5149:A 0
8 *192:19 *193:8 0
9 spine_bot_iw[2] *5001:A 0
10 spine_bot_iw[3] *192:19 5.20196e-05
11 spine_bot_iw[4] *5001:A 0.000118513
12 spine_bot_iw[4] *192:19 6.48391e-05
13 spine_bot_iw[5] *192:19 0
14 spine_top_iw[3] *192:19 0.000107716
15 spine_top_iw[6] *192:19 0
16 *4971:A *192:8 0.000498653
*RES
1 *5078:Q *192:8 8.19 
2 *192:8 *5001:A 4.98 
3 *192:8 *192:19 64.11 
4 *192:19 *5049:A 3.6 
*END

*D_NET *193 0.0105106
*CONN
*I *5002:A I *D sky130_fd_sc_hd__buf_8
*I *5050:A I *D sky130_fd_sc_hd__buf_8
*I *5079:Q O *D sky130_fd_sc_hd__dfrbp_2
*CAP
1 *5002:A 0.00015764
2 *5050:A 2.89741e-05
3 *5079:Q 0
4 *193:8 0.00221524
5 *193:6 0.00218627
6 *193:4 0.00015764
7 *5002:A *225:8 3.99834e-05
8 *5050:A *241:6 2.49909e-05
9 *193:8 *5003:A 0.000366994
10 *193:8 *194:19 0.00469003
11 spine_bot_iw[5] *193:8 0.000148475
12 spine_top_iw[6] *193:8 0.000494367
13 *192:19 *193:8 0
*RES
1 *5079:Q *193:4 1.6 
2 *193:4 *193:6 2 
3 *193:6 *193:8 57.735 
4 *193:8 *5050:A 4.05 
5 *193:4 *5002:A 3.7 
*END

*D_NET *194 0.0110762
*CONN
*I *5051:A I *D sky130_fd_sc_hd__buf_8
*I *5003:A I *D sky130_fd_sc_hd__buf_8
*I *5080:Q O *D sky130_fd_sc_hd__dfrbp_2
*CAP
1 *5051:A 0
2 *5003:A 0.000290914
3 *5080:Q 0
4 *194:19 0.00220914
5 *194:6 0.00250006
6 *194:19 *195:17 0
7 spine_bot_iw[4] *5003:A 0
8 spine_bot_iw[6] *5003:A 0.000365323
9 spine_bot_iw[6] *194:19 0.000305933
10 spine_top_iw[5] *194:19 0.000187064
11 spine_top_iw[6] *194:19 9.40025e-05
12 *4971:A *5003:A 4.89295e-05
13 *4973:A *5003:A 1.77665e-05
14 *192:19 *5003:A 0
15 *193:8 *5003:A 0.000366994
16 *193:8 *194:19 0.00469003
*RES
1 *5080:Q *194:6 3.6 
2 *194:6 *5003:A 11.805 
3 *194:6 *194:19 57.735 
4 *194:19 *5051:A 3.6 
*END

*D_NET *195 0.0067973
*CONN
*I *5052:A I *D sky130_fd_sc_hd__buf_8
*I *5004:A I *D sky130_fd_sc_hd__buf_8
*I *5081:Q O *D sky130_fd_sc_hd__dfrbp_2
*CAP
1 *5052:A 0
2 *5004:A 7.6889e-05
3 *5081:Q 0
4 *195:17 0.00248282
5 *195:6 0.0025597
6 *195:17 *5005:A 4.70256e-05
7 *195:17 *5053:A 0.00145105
8 spine_bot_iw[6] *5004:A 6.20952e-05
9 spine_bot_iw[6] *195:17 0.000117716
10 spine_top_iw[7] *195:17 0
11 *164:76 *195:17 0
12 *164:78 *5004:A 0
13 *164:78 *195:17 0
14 *194:19 *195:17 0
*RES
1 *5081:Q *195:6 3.6 
2 *195:6 *5004:A 4.98 
3 *195:6 *195:17 51.87 
4 *195:17 *5052:A 3.6 
*END

*D_NET *196 0.00545649
*CONN
*I *5053:A I *D sky130_fd_sc_hd__buf_8
*I *5005:A I *D sky130_fd_sc_hd__buf_8
*I *5082:Q O *D sky130_fd_sc_hd__dfrbp_2
*CAP
1 *5053:A 0.00176638
2 *5005:A 4.44144e-05
3 *5082:Q 9.52777e-05
4 *196:8 0.00190607
5 *5053:A *5009:A 0
6 *5053:A *5057:A 0
7 *196:8 *228:10 2.16917e-05
8 spine_bot_iw[8] *5053:A 0
9 spine_bot_iw[9] *5053:A 0
10 spine_top_iw[7] *5053:A 0
11 *164:76 *5005:A 6.5525e-05
12 *164:76 *5053:A 1.07797e-05
13 *164:76 *196:8 4.82863e-05
14 *195:17 *5005:A 4.70256e-05
15 *195:17 *5053:A 0.00145105
*RES
1 *5082:Q *196:8 4.74 
2 *196:8 *5005:A 4.98 
3 *196:8 *5053:A 43.23 
*END

*D_NET *197 0.00488023
*CONN
*I *5054:A I *D sky130_fd_sc_hd__buf_8
*I *5006:A I *D sky130_fd_sc_hd__buf_8
*I *5084:Q O *D sky130_fd_sc_hd__dfrbp_2
*CAP
1 *5054:A 0.000661145
2 *5006:A 0.000221396
3 *5084:Q 0.000795627
4 *197:8 0.00167817
5 *5054:A *5007:A 2.84137e-05
6 *5054:A *5009:A 0
7 *5054:A *5055:A 0.000428467
8 *5054:A *5057:A 0
9 *197:8 *5008:A 4.92062e-05
10 spine_bot_iw[10] *5006:A 0.000476003
11 spine_bot_iw[10] *5054:A 0.000225394
12 spine_bot_iw[9] *5006:A 0
13 spine_bot_iw[9] *5054:A 0
14 *164:41 *197:8 0.000316415
*RES
1 *5084:Q *197:8 13.02 
2 *197:8 *5006:A 9.06 
3 *197:8 *5054:A 18.75 
*END

*D_NET *198 0.00503943
*CONN
*I *5055:A I *D sky130_fd_sc_hd__buf_8
*I *5007:A I *D sky130_fd_sc_hd__buf_8
*I *5085:Q O *D sky130_fd_sc_hd__dfrbp_2
*CAP
1 *5055:A 0.000600945
2 *5007:A 0.000182864
3 *5085:Q 0.000286665
4 *198:8 0.00107047
5 *5007:A *5008:A 0.000255338
6 *5055:A *5008:A 0.000354441
7 *5055:A *5056:A 0.00140272
8 *5055:A *5057:A 0
9 spine_bot_iw[10] *5007:A 0.000189291
10 *5054:A *5007:A 2.84137e-05
11 *5054:A *5055:A 0.000428467
12 *164:115 *198:8 0.000239807
*RES
1 *5085:Q *198:8 7.155 
2 *198:8 *5007:A 8.745 
3 *198:8 *5055:A 23.595 
*END

*D_NET *199 0.00695563
*CONN
*I *5056:A I *D sky130_fd_sc_hd__buf_8
*I *5008:A I *D sky130_fd_sc_hd__buf_8
*I *5086:Q O *D sky130_fd_sc_hd__dfrbp_2
*CAP
1 *5056:A 0.00177963
2 *5008:A 0.00026759
3 *5086:Q 0
4 *199:6 0.00204722
5 *5056:A *5018:A 0.000267406
6 *5056:A *5020:A 0
7 *5056:A *5057:A 0
8 spine_top_iw[10] *5056:A 7.63125e-05
9 spine_top_iw[14] *5056:A 0.000291162
10 *5007:A *5008:A 0.000255338
11 *5019:A *5056:A 0
12 *5039:A *5056:A 1.83847e-05
13 *5055:A *5008:A 0.000354441
14 *5055:A *5056:A 0.00140272
15 *5086:RESET_B *5008:A 0.000102142
16 *164:115 *5008:A 4.40812e-05
17 *197:8 *5008:A 4.92062e-05
*RES
1 *5086:Q *199:6 3.6 
2 *199:6 *5008:A 11.385 
3 *199:6 *5056:A 42.15 
*END

*D_NET *200 0.00543781
*CONN
*I *5057:A I *D sky130_fd_sc_hd__buf_8
*I *5009:A I *D sky130_fd_sc_hd__buf_8
*I *5087:Q O *D sky130_fd_sc_hd__dfrbp_2
*CAP
1 *5057:A 0.00222056
2 *5009:A 0.000141371
3 *5087:Q 0
4 *200:6 0.00236193
5 *5057:A *5018:A 0
6 *5057:A *5207:A 2.75229e-05
7 spine_top_iw[7] *5057:A 0
8 spine_top_iw[8] *5057:A 0.000686428
9 *5053:A *5009:A 0
10 *5053:A *5057:A 0
11 *5054:A *5009:A 0
12 *5054:A *5057:A 0
13 *5055:A *5057:A 0
14 *5056:A *5057:A 0
*RES
1 *5087:Q *200:6 3.6 
2 *200:6 *5009:A 5.775 
3 *200:6 *5057:A 43.68 
*END

*D_NET *203 0.017546
*CONN
*I *5041:B I *D sky130_fd_sc_hd__and2_2
*I *5031:B I *D sky130_fd_sc_hd__and2_2
*I *5013:B I *D sky130_fd_sc_hd__and2_2
*I *5012:A I *D sky130_fd_sc_hd__buf_8
*I *5015:B I *D sky130_fd_sc_hd__and2_2
*I *5025:B I *D sky130_fd_sc_hd__and2_2
*I *5021:B I *D sky130_fd_sc_hd__and2_2
*I *5023:B I *D sky130_fd_sc_hd__and2_2
*I *5027:B I *D sky130_fd_sc_hd__and2_2
*I *5029:B I *D sky130_fd_sc_hd__and2_2
*I *5017:B I *D sky130_fd_sc_hd__and2_2
*I *5019:B I *D sky130_fd_sc_hd__and2_2
*I *5033:B I *D sky130_fd_sc_hd__and2_2
*I *5035:B I *D sky130_fd_sc_hd__and2_2
*I *5037:B I *D sky130_fd_sc_hd__and2_2
*I *5039:B I *D sky130_fd_sc_hd__and2_2
*I *5043:B I *D sky130_fd_sc_hd__and2_2
*I *5045:B I *D sky130_fd_sc_hd__and2_2
*I *5047:B I *D sky130_fd_sc_hd__and2_2
*I *4905:A I *D sky130_fd_sc_hd__inv_2
*I *5092:X O *D sky130_fd_sc_hd__buf_8
*CAP
1 *5041:B 0
2 *5031:B 0
3 *5013:B 0
4 *5012:A 0.000406836
5 *5015:B 0
6 *5025:B 0.000192273
7 *5021:B 2.06731e-05
8 *5023:B 0
9 *5027:B 0.000116451
10 *5029:B 9.43573e-05
11 *5017:B 0.000216051
12 *5019:B 0
13 *5033:B 0
14 *5035:B 2.08101e-05
15 *5037:B 2.89361e-05
16 *5039:B 0.000137062
17 *5043:B 0
18 *5045:B 0
19 *5047:B 2.8829e-05
20 *4905:A 2.48066e-05
21 *5092:X 0.000656296
22 *203:194 0.000505678
23 *203:187 0.000249713
24 *203:181 0.000196146
25 *203:138 0.0003727
26 *203:136 0.000256843
27 *203:134 0.000115625
28 *203:116 0.000551983
29 *203:110 0.000529806
30 *203:108 0.000809796
31 *203:104 0.000504066
32 *203:97 9.13245e-05
33 *203:86 0.000251766
34 *203:69 0.000654395
35 *203:54 0.000645321
36 *203:50 0.000309263
37 *203:43 0.000299543
38 *203:36 0.000195583
39 *203:21 0.000676739
40 *203:10 0.00118128
41 *4905:A *242:8 2.68526e-05
42 *5012:A *5014:A 7.91745e-05
43 *5017:B *5018:A 5.05437e-05
44 *5025:B *5150:A 2.66586e-05
45 *5027:B *5024:A 0
46 *5027:B *5030:A 0
47 *5039:B *5040:A 0
48 *5039:B *279:8 0.000145184
49 *5039:B *282:8 0.000239813
50 *5047:B *279:8 6.80137e-05
51 *5047:B *282:8 0.000122801
52 *203:36 *5048:A 0
53 *203:36 *280:8 4.77757e-05
54 *203:43 *5046:A 2.78574e-05
55 *203:43 *280:8 0.000223822
56 *203:50 *5044:A 5.34747e-05
57 *203:50 *5046:A 2.11084e-05
58 *203:50 *280:8 0.000802711
59 *203:69 *5204:A 9.27255e-06
60 *203:69 *280:8 4.82919e-05
61 *203:86 *5204:A 0.000122337
62 *203:97 *5204:A 0.000276707
63 *203:104 *5204:A 0.000110214
64 *203:110 *5020:A 0
65 *203:110 *5022:A 0.00031375
66 *203:116 *5020:A 0
67 *203:181 *5204:A 0.000162975
68 *203:187 *5204:A 0.000228184
69 *203:194 *5204:A 0.000295897
70 spine_top_iw[11] *5012:A 4.18147e-05
71 spine_top_iw[15] *203:108 0.000529046
72 spine_top_iw[15] *203:110 5.39961e-05
73 spine_top_iw[16] *203:108 0.000228632
74 spine_top_iw[16] *203:110 8.08153e-06
75 spine_top_iw[17] *203:108 0
76 spine_top_iw[18] *203:86 1.1561e-05
77 spine_top_iw[24] *203:86 0
78 spine_top_iw[5] *5012:A 0
79 spine_top_iw[9] *5012:A 0
80 *4938:A *203:10 0
81 *5023:A *5021:B 3.74161e-05
82 *5023:A *203:116 2.86623e-05
83 *5023:A *203:136 0.000163199
84 *5025:A *5025:B 9.09197e-05
85 *5035:A *203:86 5.16418e-05
86 *5037:A *203:86 0
87 *5041:A *5035:B 0
88 *5041:A *5037:B 1.85674e-05
89 *5041:A *203:69 0.00023931
90 *5041:A *203:86 0.000183163
91 *5041:A *203:97 0.000149977
92 *5041:A *203:104 0.000199407
93 *5041:A *203:181 0.000243018
94 *5041:A *203:187 0.000588822
95 *5041:A *203:194 0.000290742
96 *5043:A *203:36 1.77665e-05
97 *5043:A *203:43 8.79355e-05
98 *5047:A *203:21 0.000111012
99 *16:51 *5029:B 0.00012657
100 *16:51 *203:136 2.7441e-05
101 *16:51 *203:138 0.000172892
*RES
1 *5092:X *203:10 14.355 
2 *203:10 *4905:A 4.05 
3 *203:10 *203:21 8.265 
4 *203:21 *5047:B 4.74 
5 *203:21 *203:36 4.34 
6 *203:36 *5045:B 1.6 
7 *203:36 *203:43 2.175 
8 *203:43 *5043:B 1.6 
9 *203:43 *203:50 7.35 
10 *203:50 *203:54 2.615 
11 *203:54 *5039:B 7.155 
12 *203:54 *203:69 7.97 
13 *203:69 *5037:B 2.215 
14 *203:69 *203:86 7.495 
15 *203:86 *5035:B 1.96 
16 *203:86 *203:97 2.88 
17 *203:97 *5033:B 1.6 
18 *203:97 *203:104 1.83 
19 *203:104 *203:108 11.795 
20 *203:108 *203:110 4.44 
21 *203:110 *203:116 7.265 
22 *203:116 *5019:B 1.6 
23 *203:116 *5017:B 5.185 
24 *203:110 *203:134 2 
25 *203:134 *203:136 2.175 
26 *203:136 *203:138 3.555 
27 *203:138 *5029:B 3.43 
28 *203:138 *5027:B 7.49 
29 *203:136 *5023:B 1.6 
30 *203:134 *5021:B 2.05 
31 *203:108 *5025:B 6.825 
32 *203:104 *203:181 2.52 
33 *203:181 *203:187 6 
34 *203:187 *5015:B 1.6 
35 *203:187 *203:194 4.59 
36 *203:194 *5012:A 12.305 
37 *203:194 *5013:B 1.6 
38 *203:181 *5031:B 1.6 
39 *203:50 *5041:B 1.6 
*END

*D_NET *204 0.000228547
*CONN
*I *5014:A I *D sky130_fd_sc_hd__buf_8
*I *5013:X O *D sky130_fd_sc_hd__and2_2
*CAP
1 *5014:A 7.4686e-05
2 *5013:X 7.4686e-05
3 *5014:A *5016:A 0
4 *5012:A *5014:A 7.91745e-05
*RES
1 *5013:X *5014:A 8.835 
*END

*D_NET *205 0.00060834
*CONN
*I *5016:A I *D sky130_fd_sc_hd__buf_8
*I *5015:X O *D sky130_fd_sc_hd__and2_2
*CAP
1 *5016:A 0.000185019
2 *5015:X 0.000185019
3 *5016:A *5204:A 0.000161003
4 spine_top_iw[9] *5016:A 7.72994e-05
5 *5014:A *5016:A 0
*RES
1 *5015:X *5016:A 10.32 
*END

*D_NET *206 0.00112314
*CONN
*I *5018:A I *D sky130_fd_sc_hd__buf_8
*I *5017:X O *D sky130_fd_sc_hd__and2_2
*CAP
1 *5018:A 0.000400131
2 *5017:X 0.000400131
3 *5017:A *5018:A 4.9253e-06
4 *5017:B *5018:A 5.05437e-05
5 *5056:A *5018:A 0.000267406
6 *5057:A *5018:A 0
*RES
1 *5017:X *5018:A 14.4 
*END

*D_NET *207 0.000451605
*CONN
*I *5020:A I *D sky130_fd_sc_hd__buf_8
*I *5019:X O *D sky130_fd_sc_hd__and2_2
*CAP
1 *5020:A 0.000225803
2 *5019:X 0.000225803
3 spine_top_iw[14] *5020:A 0
4 *5023:A *5020:A 0
5 *5056:A *5020:A 0
6 *203:110 *5020:A 0
7 *203:116 *5020:A 0
*RES
1 *5019:X *5020:A 10.62 
*END

*D_NET *208 0.000666271
*CONN
*I *5022:A I *D sky130_fd_sc_hd__buf_8
*I *5021:X O *D sky130_fd_sc_hd__and2_2
*CAP
1 *5022:A 0.000120602
2 *5021:X 0.000120602
3 *5022:A *5024:A 0
4 spine_top_iw[16] *5022:A 0.000111316
5 *203:110 *5022:A 0.00031375
*RES
1 *5021:X *5022:A 10.875 
*END

*D_NET *209 0.000170289
*CONN
*I *5024:A I *D sky130_fd_sc_hd__buf_8
*I *5023:X O *D sky130_fd_sc_hd__and2_2
*CAP
1 *5024:A 8.51447e-05
2 *5023:X 8.51447e-05
3 spine_top_iw[16] *5024:A 0
4 *5022:A *5024:A 0
5 *5027:B *5024:A 0
*RES
1 *5023:X *5024:A 8.58 
*END

*D_NET *210 0.000573645
*CONN
*I *5026:A I *D sky130_fd_sc_hd__buf_8
*I *5025:X O *D sky130_fd_sc_hd__and2_2
*CAP
1 *5026:A 0.000221503
2 *5025:X 0.000221503
3 *5026:A *5150:A 6.60261e-06
4 spine_top_iw[16] *5026:A 0
5 spine_top_iw[17] *5026:A 1.89685e-05
6 spine_top_iw[18] *5026:A 0.000105068
7 spine_top_iw[19] *5026:A 0
*RES
1 *5025:X *5026:A 11.325 
*END

*D_NET *211 0.000521952
*CONN
*I *5028:A I *D sky130_fd_sc_hd__buf_8
*I *5027:X O *D sky130_fd_sc_hd__and2_2
*CAP
1 *5028:A 0.000166263
2 *5027:X 0.000166263
3 *5028:A *5030:A 0
4 spine_top_iw[19] *5028:A 0.000189426
*RES
1 *5027:X *5028:A 10.62 
*END

*D_NET *212 0.000450496
*CONN
*I *5030:A I *D sky130_fd_sc_hd__buf_8
*I *5029:X O *D sky130_fd_sc_hd__and2_2
*CAP
1 *5030:A 0.000225248
2 *5029:X 0.000225248
3 *5027:B *5030:A 0
4 *5028:A *5030:A 0
*RES
1 *5029:X *5030:A 10.875 
*END

*D_NET *213 0.000466172
*CONN
*I *5032:A I *D sky130_fd_sc_hd__buf_8
*I *5031:X O *D sky130_fd_sc_hd__and2_2
*CAP
1 *5032:A 0.000189318
2 *5031:X 0.000189318
3 *5032:A *5034:A 0
4 spine_top_iw[21] *5032:A 8.75364e-05
*RES
1 *5031:X *5032:A 10.62 
*END

*D_NET *214 0.0004925
*CONN
*I *5034:A I *D sky130_fd_sc_hd__buf_8
*I *5033:X O *D sky130_fd_sc_hd__and2_2
*CAP
1 *5034:A 0.000183619
2 *5033:X 0.000183619
3 *5034:A *5036:A 0
4 *5034:A *5204:A 0.000125262
5 spine_top_iw[17] *5034:A 0
6 spine_top_iw[21] *5034:A 0
7 spine_top_iw[22] *5034:A 0
8 *5032:A *5034:A 0
*RES
1 *5033:X *5034:A 9.975 
*END

*D_NET *215 0.000248357
*CONN
*I *5036:A I *D sky130_fd_sc_hd__buf_8
*I *5035:X O *D sky130_fd_sc_hd__and2_2
*CAP
1 *5036:A 7.38131e-05
2 *5035:X 7.38131e-05
3 *5036:A *5038:A 0
4 spine_top_iw[17] *5036:A 6.24871e-05
5 spine_top_iw[18] *5036:A 2.09442e-05
6 spine_top_iw[22] *5036:A 1.72991e-05
7 *5034:A *5036:A 0
*RES
1 *5035:X *5036:A 8.835 
*END

*D_NET *216 0.00032646
*CONN
*I *5038:A I *D sky130_fd_sc_hd__buf_8
*I *5037:X O *D sky130_fd_sc_hd__and2_2
*CAP
1 *5038:A 0.00016323
2 *5037:X 0.00016323
3 spine_top_iw[18] *5038:A 0
4 spine_top_iw[24] *5038:A 0
5 *5036:A *5038:A 0
*RES
1 *5037:X *5038:A 9.63 
*END

*D_NET *217 0.000194916
*CONN
*I *5040:A I *D sky130_fd_sc_hd__buf_8
*I *5039:X O *D sky130_fd_sc_hd__and2_2
*CAP
1 *5040:A 9.74582e-05
2 *5039:X 9.74582e-05
3 spine_top_iw[24] *5040:A 0
4 *5039:B *5040:A 0
*RES
1 *5039:X *5040:A 8.58 
*END

*D_NET *218 0.0002024
*CONN
*I *5042:A I *D sky130_fd_sc_hd__buf_8
*I *5041:X O *D sky130_fd_sc_hd__and2_2
*CAP
1 *5042:A 9.50445e-05
2 *5041:X 9.50445e-05
3 spine_top_iw[25] *5042:A 1.23107e-05
4 spine_top_iw[26] *5042:A 0
*RES
1 *5041:X *5042:A 8.835 
*END

*D_NET *219 0.000427049
*CONN
*I *5044:A I *D sky130_fd_sc_hd__buf_8
*I *5043:X O *D sky130_fd_sc_hd__and2_2
*CAP
1 *5044:A 0.000186787
2 *5043:X 0.000186787
3 *5044:A *5046:A 0
4 spine_top_iw[26] *5044:A 0
5 *203:50 *5044:A 5.34747e-05
*RES
1 *5043:X *5044:A 9.975 
*END

*D_NET *220 0.00115992
*CONN
*I *5046:A I *D sky130_fd_sc_hd__buf_8
*I *5045:X O *D sky130_fd_sc_hd__and2_2
*CAP
1 *5046:A 0.000405352
2 *5045:X 0.000405352
3 *5046:A *5048:A 7.2208e-05
4 spine_top_iw[26] *5046:A 0
5 spine_top_iw[28] *5046:A 0.000141599
6 *5043:A *5046:A 8.64421e-05
7 *5044:A *5046:A 0
8 *203:43 *5046:A 2.78574e-05
9 *203:50 *5046:A 2.11084e-05
*RES
1 *5045:X *5046:A 13.935 
*END

*D_NET *221 0.000854797
*CONN
*I *5048:A I *D sky130_fd_sc_hd__buf_8
*I *5047:X O *D sky130_fd_sc_hd__and2_2
*CAP
1 *5048:A 0.00036683
2 *5047:X 0.00036683
3 *5048:A *282:8 4.89295e-05
4 *5046:A *5048:A 7.2208e-05
5 *203:36 *5048:A 0
*RES
1 *5047:X *5048:A 12.81 
*END

*D_NET *224 0.00177123
*CONN
*I *5079:CLK I *D sky130_fd_sc_hd__dfrbp_2
*I *5078:D I *D sky130_fd_sc_hd__dfrbp_2
*I *5078:Q_N O *D sky130_fd_sc_hd__dfrbp_2
*CAP
1 *5079:CLK 0.00024167
2 *5078:D 3.4259e-05
3 *5078:Q_N 0.000157725
4 *224:8 0.000433654
5 spine_bot_iw[10] *5079:CLK 0.000106824
6 spine_bot_iw[12] *5079:CLK 0
7 spine_bot_iw[8] *5079:CLK 0
8 spine_bot_iw[9] *5079:CLK 0
9 *4971:A *5078:D 7.01753e-05
10 *4971:A *224:8 0.000222033
11 *4973:A *5078:D 9.55766e-05
12 *4973:A *224:8 0.000332409
13 *5078:RESET_B *224:8 7.69078e-05
*RES
1 *5078:Q_N *224:8 7.24 
2 *224:8 *5078:D 3.085 
3 *224:8 *5079:CLK 9.53 
*END

*D_NET *225 0.00198261
*CONN
*I *5079:D I *D sky130_fd_sc_hd__dfrbp_2
*I *5080:CLK I *D sky130_fd_sc_hd__dfrbp_2
*I *5079:Q_N O *D sky130_fd_sc_hd__dfrbp_2
*CAP
1 *5079:D 0
2 *5080:CLK 0.00021032
3 *5079:Q_N 0.000494107
4 *225:8 0.000704428
5 *5080:CLK *5081:CLK 6.49558e-05
6 *5080:CLK *226:6 2.52616e-05
7 spine_bot_iw[10] *5080:CLK 0
8 spine_bot_iw[9] *5080:CLK 0.000366021
9 *4968:A *5080:CLK 7.75325e-05
10 *5002:A *225:8 3.99834e-05
*RES
1 *5079:Q_N *225:8 8.62 
2 *225:8 *5080:CLK 11.27 
3 *225:8 *5079:D 1.6 
*END

*D_NET *226 0.00234297
*CONN
*I *5080:D I *D sky130_fd_sc_hd__dfrbp_2
*I *5081:CLK I *D sky130_fd_sc_hd__dfrbp_2
*I *5080:Q_N O *D sky130_fd_sc_hd__dfrbp_2
*CAP
1 *5080:D 0
2 *5081:CLK 0.000402221
3 *5080:Q_N 0.000642176
4 *226:6 0.0010444
5 spine_bot_iw[10] *5081:CLK 0
6 *5080:CLK *5081:CLK 6.49558e-05
7 *5080:CLK *226:6 2.52616e-05
8 *173:112 *5081:CLK 0.000163961
*RES
1 *5080:Q_N *226:6 8.27125 
2 *226:6 *5081:CLK 11.4688 
3 *226:6 *5080:D 1.6 
*END

*D_NET *227 0.00298427
*CONN
*I *5082:CLK I *D sky130_fd_sc_hd__dfrbp_2
*I *5081:D I *D sky130_fd_sc_hd__dfrbp_2
*I *5081:Q_N O *D sky130_fd_sc_hd__dfrbp_2
*CAP
1 *5082:CLK 0.000402524
2 *5081:D 6.14887e-05
3 *5081:Q_N 0.000538191
4 *227:12 0.0010022
5 *5082:CLK *5083:CLK 9.85113e-05
6 *5082:CLK *228:10 1.12578e-05
7 spine_bot_iw[10] *5081:D 4.09116e-05
8 spine_bot_iw[10] *5082:CLK 0.000131016
9 spine_bot_iw[10] *227:12 1.88904e-05
10 *4989:A *5081:D 2.75229e-05
11 *4989:A *227:12 0.000415533
12 *4993:A *5081:D 4.99619e-05
13 *5082:RESET_B *5082:CLK 0.00012657
14 *173:112 *5081:D 5.96859e-05
15 *173:112 *5082:CLK 0
*RES
1 *5081:Q_N *227:12 10.8825 
2 *227:12 *5081:D 5.3025 
3 *227:12 *5082:CLK 10.7625 
*END

*D_NET *228 0.00282489
*CONN
*I *5082:D I *D sky130_fd_sc_hd__dfrbp_2
*I *5083:CLK I *D sky130_fd_sc_hd__dfrbp_2
*I *5082:Q_N O *D sky130_fd_sc_hd__dfrbp_2
*CAP
1 *5082:D 0
2 *5083:CLK 0.000647959
3 *5082:Q_N 0.000397282
4 *228:10 0.00104524
5 *5082:CLK *5083:CLK 9.85113e-05
6 *5082:CLK *228:10 1.12578e-05
7 *5082:RESET_B *5083:CLK 0.00026033
8 *5082:RESET_B *228:10 0.000120621
9 *5084:RESET_B *5083:CLK 9.66021e-05
10 *164:76 *228:10 0.0001254
11 *196:8 *228:10 2.16917e-05
*RES
1 *5082:Q_N *228:10 8.725 
2 *228:10 *5083:CLK 13.78 
3 *228:10 *5082:D 1.6 
*END

*D_NET *229 0.00149175
*CONN
*I *5083:D I *D sky130_fd_sc_hd__dfrbp_2
*I *5084:CLK I *D sky130_fd_sc_hd__dfrbp_2
*I *5083:Q_N O *D sky130_fd_sc_hd__dfrbp_2
*CAP
1 *5083:D 2.05484e-05
2 *5084:CLK 0.000237949
3 *5083:Q_N 0.000377993
4 *229:8 0.000636491
5 *229:8 *230:10 5.30673e-05
6 *5083:RESET_B *229:8 4.70477e-05
7 *5084:RESET_B *5083:D 2.30292e-05
8 *5084:RESET_B *5084:CLK 0
9 *5084:RESET_B *229:8 9.56213e-05
*RES
1 *5083:Q_N *229:8 8.275 
2 *229:8 *5084:CLK 9.53 
3 *229:8 *5083:D 2.05 
*END

*D_NET *230 0.00225098
*CONN
*I *5093:A I *D sky130_fd_sc_hd__buf_8
*I *5091:A I *D sky130_fd_sc_hd__and2_2
*I *5090:A I *D sky130_fd_sc_hd__inv_2
*I *5083:Q O *D sky130_fd_sc_hd__dfrbp_2
*CAP
1 *5093:A 0
2 *5091:A 9.26117e-05
3 *5090:A 6.58862e-05
4 *5083:Q 0.000614175
5 *230:12 0.000314055
6 *230:10 0.000769732
7 *5090:A *5088:A 2.30292e-05
8 *5090:A *238:6 0.000124007
9 *230:12 *5088:A 8.85677e-05
10 *5091:B *5091:A 0.000105849
11 *229:8 *230:10 5.30673e-05
*RES
1 *5083:Q *230:10 10.36 
2 *230:10 *230:12 2.865 
3 *230:12 *5090:A 3.085 
4 *230:12 *5091:A 7.745 
5 *230:10 *5093:A 1.6 
*END

*D_NET *231 0.00122433
*CONN
*I *5085:CLK I *D sky130_fd_sc_hd__dfrbp_2
*I *5084:D I *D sky130_fd_sc_hd__dfrbp_2
*I *5084:Q_N O *D sky130_fd_sc_hd__dfrbp_2
*CAP
1 *5085:CLK 0.000116451
2 *5084:D 0.000263703
3 *5084:Q_N 0.000161174
4 *231:8 0.000541327
5 *5085:CLK *5086:CLK 0
6 *164:41 *231:8 0.00014168
*RES
1 *5084:Q_N *231:8 4.825 
2 *231:8 *5084:D 5.5 
3 *231:8 *5085:CLK 7.49 
*END

*D_NET *232 0.00149929
*CONN
*I *5086:CLK I *D sky130_fd_sc_hd__dfrbp_2
*I *5085:D I *D sky130_fd_sc_hd__dfrbp_2
*I *5085:Q_N O *D sky130_fd_sc_hd__dfrbp_2
*CAP
1 *5086:CLK 0.000251053
2 *5085:D 0.00014631
3 *5085:Q_N 0.000281441
4 *232:8 0.000678804
5 *5086:CLK *5087:CLK 0
6 *5085:CLK *5086:CLK 0
7 *5085:RESET_B *5086:CLK 0
8 *164:115 *232:8 0.00014168
*RES
1 *5085:Q_N *232:8 6.55 
2 *232:8 *5085:D 3.775 
3 *232:8 *5086:CLK 9.785 
*END

*D_NET *233 0.00121885
*CONN
*I *5087:CLK I *D sky130_fd_sc_hd__dfrbp_2
*I *5086:D I *D sky130_fd_sc_hd__dfrbp_2
*I *5086:Q_N O *D sky130_fd_sc_hd__dfrbp_2
*CAP
1 *5087:CLK 0.00011485
2 *5086:D 0.000125308
3 *5086:Q_N 0.000357262
4 *233:8 0.00059742
5 *5086:CLK *5087:CLK 0
6 *5086:RESET_B *5087:CLK 0
7 *5086:RESET_B *233:8 2.40101e-05
*RES
1 *5086:Q_N *233:8 6.895 
2 *233:8 *5086:D 3.43 
3 *233:8 *5087:CLK 7.49 
*END

*D_NET *234 0.000985049
*CONN
*I *5087:D I *D sky130_fd_sc_hd__dfrbp_2
*I *5087:Q_N O *D sky130_fd_sc_hd__dfrbp_2
*CAP
1 *5087:D 0.000492525
2 *5087:Q_N 0.000492525
*RES
1 *5087:Q_N *5087:D 10.22 
*END

*D_NET *235 0.00095681
*CONN
*I *5088:A I *D sky130_fd_sc_hd__and2_2
*I *5090:Y O *D sky130_fd_sc_hd__inv_2
*CAP
1 *5088:A 0.000341451
2 *5090:Y 0.000341451
3 *5088:A *238:6 0.000162311
4 *5090:A *5088:A 2.30292e-05
5 *5091:B *5088:A 0
6 *230:12 *5088:A 8.85677e-05
*RES
1 *5090:Y *5088:A 12.045 
*END

*D_NET *236 0.000441664
*CONN
*I *5089:A I *D sky130_fd_sc_hd__buf_8
*I *5088:X O *D sky130_fd_sc_hd__and2_2
*CAP
1 *5089:A 0.000212285
2 *5088:X 0.000212285
3 *173:8 *5089:A 1.70935e-05
*RES
1 *5088:X *5089:A 9.975 
*END

*D_NET *237 0.00403855
*CONN
*I *5092:A I *D sky130_fd_sc_hd__buf_8
*I *5091:X O *D sky130_fd_sc_hd__and2_2
*CAP
1 *5092:A 0.00201928
2 *5091:X 0.00201928
*RES
1 *5091:X *5092:A 39.585 
*END

*D_NET *238 0.034982
*CONN
*I *5171:S I *D sky130_fd_sc_hd__mux2_2
*I *5172:S I *D sky130_fd_sc_hd__mux2_2
*I *5202:S I *D sky130_fd_sc_hd__mux2_2
*I *5176:S I *D sky130_fd_sc_hd__mux2_2
*I *5177:S I *D sky130_fd_sc_hd__mux2_2
*I *5201:S I *D sky130_fd_sc_hd__mux2_2
*I *5173:S I *D sky130_fd_sc_hd__mux2_2
*I *5174:S I *D sky130_fd_sc_hd__mux2_2
*I *5178:S I *D sky130_fd_sc_hd__mux2_2
*I *5175:S I *D sky130_fd_sc_hd__mux2_2
*I *5200:S I *D sky130_fd_sc_hd__mux2_2
*I *5199:S I *D sky130_fd_sc_hd__mux2_2
*I *5195:S I *D sky130_fd_sc_hd__mux2_2
*I *5196:S I *D sky130_fd_sc_hd__mux2_2
*I *5228:S I *D sky130_fd_sc_hd__mux2_2
*I *5229:S I *D sky130_fd_sc_hd__mux2_2
*I *5230:S I *D sky130_fd_sc_hd__mux2_2
*I *5231:S I *D sky130_fd_sc_hd__mux2_2
*I *5227:S I *D sky130_fd_sc_hd__mux2_2
*I *5232:S I *D sky130_fd_sc_hd__mux2_2
*I *5197:S I *D sky130_fd_sc_hd__mux2_2
*I *5198:S I *D sky130_fd_sc_hd__mux2_2
*I *5233:S I *D sky130_fd_sc_hd__mux2_2
*I *5234:S I *D sky130_fd_sc_hd__mux2_2
*I *5093:X O *D sky130_fd_sc_hd__buf_8
*CAP
1 *5171:S 7.79275e-05
2 *5172:S 0
3 *5202:S 0
4 *5176:S 5.92842e-05
5 *5177:S 3.52506e-05
6 *5201:S 0
7 *5173:S 0.000104474
8 *5174:S 0
9 *5178:S 0.000692883
10 *5175:S 0.000412354
11 *5200:S 0.000302878
12 *5199:S 0.000473869
13 *5195:S 0
14 *5196:S 0.000123661
15 *5228:S 0
16 *5229:S 0
17 *5230:S 0
18 *5231:S 7.54078e-05
19 *5227:S 6.88801e-05
20 *5232:S 0
21 *5197:S 2.22382e-05
22 *5198:S 0.000140149
23 *5233:S 0.000197441
24 *5234:S 0.000909188
25 *5093:X 0.000216475
26 *238:229 0.000156277
27 *238:227 0.000169074
28 *238:218 0.000270347
29 *238:216 0.000397926
30 *238:185 0.000692883
31 *238:163 0.000895156
32 *238:161 0.000266464
33 *238:159 0.000461854
34 *238:157 0.000768867
35 *238:118 0.000348196
36 *238:105 0.000484103
37 *238:82 0.000159157
38 *238:80 0.000435735
39 *238:46 0.000235332
40 *238:33 0.000396211
41 *238:29 0.00082909
42 *238:27 0.000639319
43 *238:25 0.000803709
44 *238:6 0.00183695
45 *5171:S *5172:A0 8.65905e-05
46 *5171:S *304:28 0.000176511
47 *5173:S *5238:A 8.65961e-05
48 *5173:S *306:18 3.00399e-05
49 *5175:S *5201:A0 0.000356395
50 *5175:S *5208:A 0.000140027
51 *5176:S *5176:A0 0.000134516
52 *5176:S *5177:A1 1.52184e-05
53 *5177:S *5177:A1 0.000159048
54 *5177:S *5210:A 7.15196e-05
55 *5196:S *5195:A1 3.86529e-05
56 *5196:S *5196:A0 0
57 *5196:S *281:12 2.04902e-05
58 *5196:S *282:8 4.77757e-05
59 *5197:S *5197:A0 4.82919e-05
60 *5197:S *304:28 8.65961e-05
61 *5198:S *304:28 0.000270941
62 *5199:S *5233:A0 0.000122337
63 *5199:S *283:16 8.49205e-05
64 *5199:S *309:16 0.000343773
65 *5200:S *5172:A0 0
66 *5200:S *5174:A0 0.000160651
67 *5200:S *5200:A0 4.99619e-05
68 *5200:S *5200:A1 3.00381e-05
69 *5200:S *5208:A 7.35813e-05
70 *5231:S *242:8 0.000341885
71 *5233:S *5233:A0 0.000122331
72 *5234:S *5234:A1 8.65961e-05
73 *238:29 *5232:A0 0.000122331
74 *238:29 *303:18 4.82919e-05
75 *238:33 *5197:A0 0.000815339
76 *238:33 *5232:A1 7.23533e-05
77 *238:33 *307:18 8.97642e-05
78 *238:46 *5197:A0 0.000181692
79 *238:80 *5195:A0 9.50036e-05
80 *238:82 *242:8 0.000326764
81 *238:105 *5195:A0 0
82 *238:105 *5228:A0 6.44959e-05
83 *238:105 *242:8 0.000188063
84 *238:118 *5195:A0 0
85 *238:118 *279:8 5.05437e-05
86 *238:118 *281:12 8.57709e-05
87 *238:118 *282:8 0.000313528
88 *238:157 *309:16 0.000731058
89 *238:159 *5172:A0 0
90 *238:159 *5173:A0 2.96553e-05
91 *238:159 *5173:A1 0
92 *238:161 *5173:A0 4.70995e-05
93 *238:161 *5174:A0 9.50342e-06
94 *238:163 *5174:A0 0.000312104
95 *238:216 *5172:A0 0
96 *238:218 *304:28 0.000417525
97 *238:227 *5202:A0 0.000129758
98 *238:227 *5209:A 7.91018e-05
99 *238:227 *304:28 0.000424625
100 *238:229 *5177:A1 8.49205e-05
101 *238:229 *5202:A0 2.49909e-05
102 *238:229 *304:28 9.56742e-05
103 spine_top_ow[3] *238:105 0.000136884
104 spine_top_ow[3] *238:118 5.30366e-05
105 spine_top_ow[8] *238:33 0.000243995
106 spine_top_ow[8] *238:46 0.000103815
107 *4939:A *5231:S 0.000256182
108 *4939:A *238:82 0.00033764
109 *4939:A *238:105 4.471e-05
110 *4950:TE_B *238:105 0.000125079
111 *4950:TE_B *238:118 1.22676e-05
112 *4951:TE_B *5178:S 0.000198046
113 *4995:A *5234:S 0.000414041
114 *5047:A *5199:S 0.000288974
115 *5088:A *238:6 0.000162311
116 *5090:A *238:6 0.000124007
117 *5114:DIODE *238:118 0
118 *5116:DIODE *5227:S 8.65961e-05
119 *5157:A *5178:S 5.30673e-05
120 *5157:A *238:159 0
121 *5157:A *238:161 0
122 *5163:A *5175:S 0.000161529
123 *5163:A *5200:S 0
124 *5164:A *5200:S 5.53249e-06
125 *5191:A *5175:S 4.82863e-05
126 *5192:A *5175:S 8.65905e-05
127 *5193:A *5196:S 9.50342e-06
128 *5218:A *238:25 2.14129e-05
129 *5218:A *238:80 0.000312792
130 *5218:A *238:105 0.0001249
131 *5219:A *238:25 0.00046
132 *5219:A *238:80 0.000131408
133 *23:15 *5176:S 3.81581e-05
134 *24:32 *5171:S 0.000225094
135 *24:32 *5177:S 1.47347e-05
136 *24:32 *238:218 0.000424534
137 *24:32 *238:227 3.3795e-05
138 *24:32 *238:229 4.9969e-05
139 *98:24 *238:25 0.000140229
140 *98:26 *238:25 0.0032257
141 *99:24 *5234:S 0.000343738
142 *99:24 *238:25 0.00304344
143 *100:10 *5234:S 0.000471626
144 *146:8 *238:159 0
145 *146:19 *238:159 0
146 *146:19 *238:216 0
147 *155:10 *238:105 0.000139933
148 *160:12 *238:33 5.22027e-05
149 *170:10 *238:105 2.97004e-06
150 *170:19 *238:105 6.95422e-05
151 *170:55 *238:46 5.69248e-06
152 *171:6 *5178:S 7.60965e-05
153 *171:15 *5178:S 0.000246312
154 *171:44 *5178:S 0.000105624
155 *171:58 *5231:S 8.57024e-05
156 *171:88 *5196:S 0
*RES
1 *5093:X *238:6 5.5 
2 *238:6 *5234:S 26.045 
3 *238:6 *238:25 41.63 
4 *238:25 *238:27 2 
5 *238:27 *238:29 7.695 
6 *238:29 *238:33 11.54 
7 *238:33 *5233:S 4.74 
8 *238:33 *238:46 4.4 
9 *238:46 *5198:S 4.585 
10 *238:46 *5197:S 2.395 
11 *238:29 *5232:S 1.6 
12 *238:27 *5227:S 2.74 
13 *238:25 *238:80 5.675 
14 *238:80 *238:82 3.21 
15 *238:82 *5231:S 4.81 
16 *238:82 *5230:S 1.6 
17 *238:80 *5229:S 1.6 
18 *238:80 *238:105 9.8 
19 *238:105 *5228:S 3.6 
20 *238:105 *238:118 7.52 
21 *238:118 *5196:S 7.94 
22 *238:118 *5195:S 1.6 
23 *5233:S *5199:S 8.48 
24 *5199:S *238:157 10.26 
25 *238:157 *238:159 4.44 
26 *238:159 *238:161 1.635 
27 *238:161 *238:163 3.675 
28 *238:163 *5200:S 9.465 
29 *238:163 *5175:S 11.985 
30 *238:161 *238:185 2 
31 *238:185 *5178:S 13.81 
32 *238:185 *5174:S 1.6 
33 *238:159 *5173:S 5.1 
34 *238:157 *238:216 4.4 
35 *238:216 *238:218 6.66 
36 *238:218 *5201:S 1.6 
37 *238:218 *238:227 4.26 
38 *238:227 *238:229 1.83 
39 *238:229 *5177:S 3.085 
40 *238:229 *5176:S 7.235 
41 *238:227 *5202:S 1.6 
42 *238:216 *5172:S 1.6 
43 *238:216 *5171:S 5.155 
*END

*D_NET *239 0.023268
*CONN
*I *5147:A I *D sky130_fd_sc_hd__bufinv_8
*I *5171:X O *D sky130_fd_sc_hd__mux2_2
*CAP
1 *5147:A 0.00499883
2 *5171:X 0.00499883
3 *5147:A *5148:A 0.00820506
4 *5147:A *5171:A0 0
5 *5147:A *5205:A 0.000119831
6 *5147:A *5206:A 0.000109836
7 *5147:A *279:8 0.000208687
8 *5147:A *279:16 0.000101392
9 *5147:A *281:12 0.000313437
10 pad_uio_out[1] *5147:A 9.92495e-05
11 spine_top_iw[13] *5147:A 0.000163067
12 spine_top_ow[3] *5147:A 4.5387e-05
13 spine_top_ow[4] *5147:A 2.47368e-05
14 spine_top_ow[5] *5147:A 2.79364e-05
15 spine_top_ow[6] *5147:A 5.88886e-05
16 *5033:A *5147:A 0.000130058
17 *5035:A *5147:A 0.00271788
18 *5037:A *5147:A 0.000541088
19 *19:9 *5147:A 5.91244e-05
20 *20:9 *5147:A 0.000344654
*RES
1 *5171:X *5147:A 26.4976 
*END

*D_NET *240 0.0211619
*CONN
*I *5148:A I *D sky130_fd_sc_hd__bufinv_8
*I *5172:X O *D sky130_fd_sc_hd__mux2_2
*CAP
1 *5148:A 0.00502329
2 *5172:X 0.00502329
3 *5148:A *5171:A0 0
4 *5148:A *5172:A0 5.16348e-05
5 *5148:A *279:16 0.000186451
6 *5148:A *280:8 0.000108844
7 *5148:A *282:8 0.000290214
8 *5148:A *304:28 0.000118286
9 pad_uio_oex[2] *5148:A 0
10 spine_top_iw[13] *5148:A 0.000158577
11 spine_top_iw[17] *5148:A 0
12 spine_top_iw[18] *5148:A 0
13 spine_top_iw[19] *5148:A 4.3249e-05
14 spine_top_iw[21] *5148:A 0
15 spine_top_iw[22] *5148:A 0
16 spine_top_iw[24] *5148:A 0
17 spine_top_iw[25] *5148:A 0
18 spine_top_ow[11] *5148:A 0
19 spine_top_ow[13] *5148:A 0
20 spine_top_ow[15] *5148:A 0
21 spine_top_ow[1] *5148:A 0
22 spine_top_ow[2] *5148:A 0
23 spine_top_ow[7] *5148:A 0
24 spine_top_ow[8] *5148:A 0
25 spine_top_ow[9] *5148:A 0
26 *5015:A *5148:A 0.000109836
27 *5033:A *5148:A 0.00134768
28 *5037:A *5148:A 0.000119831
29 *5147:A *5148:A 0.00820506
30 *22:11 *5148:A 0.000375674
31 *146:19 *5148:A 0
*RES
1 *5172:X *5148:A 26.5888 
*END

*D_NET *241 0.0122004
*CONN
*I *5149:A I *D sky130_fd_sc_hd__bufinv_8
*I *5173:X O *D sky130_fd_sc_hd__mux2_2
*CAP
1 *5149:A 0.000637883
2 *5173:X 0
3 *241:6 0.00480698
4 *241:4 0.0041691
5 *241:6 *306:18 0.000553403
6 spine_top_iw[3] *5149:A 0
7 spine_top_iw[6] *5149:A 0.000319167
8 *4955:A *241:6 4.82919e-05
9 *4958:A *241:6 0.0001947
10 *5039:A *5149:A 0.000435133
11 *5050:A *241:6 2.49909e-05
12 *5213:A *241:6 4.66108e-05
13 *155:10 *241:6 0.000124007
14 *156:23 *241:6 3.74161e-05
15 *170:23 *241:6 7.10578e-05
16 *170:25 *241:6 4.35348e-05
17 *171:73 *241:6 0.000120655
18 *171:213 *241:6 0.000567481
19 *192:19 *5149:A 0
*RES
1 *5173:X *241:4 1.6 
2 *241:4 *241:6 61.515 
3 *241:6 *5149:A 19.04 
*END

*D_NET *242 0.0144584
*CONN
*I *5150:A I *D sky130_fd_sc_hd__bufinv_8
*I *5174:X O *D sky130_fd_sc_hd__mux2_2
*CAP
1 *5150:A 0.00207334
2 *5174:X 0.00266917
3 *242:8 0.00474251
4 *4905:A *242:8 2.68526e-05
5 *4938:A *242:8 0.000312735
6 *4939:A *242:8 1.61831e-05
7 *4943:TE_B *242:8 0.000655137
8 *5025:A *5150:A 0.00250392
9 *5025:B *5150:A 2.66586e-05
10 *5026:A *5150:A 6.60261e-06
11 *5231:S *242:8 0.000341885
12 *22:13 *5150:A 0
13 *147:8 *242:8 2.77283e-05
14 *170:41 *242:8 0.000411085
15 *171:44 *242:8 4.85494e-05
16 *171:51 *242:8 4.60584e-05
17 *171:58 *242:8 3.51884e-05
18 *238:82 *242:8 0.000326764
19 *238:105 *242:8 0.000188063
*RES
1 *5174:X *242:8 44.6725 
2 *242:8 *5150:A 34.4075 
*END

*D_NET *243 0.000396493
*CONN
*I *5151:A I *D sky130_fd_sc_hd__bufinv_8
*I *5175:X O *D sky130_fd_sc_hd__mux2_2
*CAP
1 *5151:A 0.000158157
2 *5175:X 0.000158157
3 *5151:A *5175:A1 2.46089e-05
4 *5151:A *5202:A0 0
5 *5151:A *5208:A 5.55705e-05
6 *23:15 *5151:A 0
*RES
1 *5175:X *5151:A 9.4125 
*END

*D_NET *244 0.000830871
*CONN
*I *5152:A I *D sky130_fd_sc_hd__bufinv_8
*I *5176:X O *D sky130_fd_sc_hd__mux2_2
*CAP
1 *5152:A 0.000293711
2 *5176:X 0.000293711
3 *5152:A *5210:A 0.000140628
4 *5152:A *5236:A 0.000102821
5 *24:13 *5152:A 0
*RES
1 *5176:X *5152:A 11.7 
*END

*D_NET *245 0.00103119
*CONN
*I *5153:A I *D sky130_fd_sc_hd__bufinv_8
*I *5177:X O *D sky130_fd_sc_hd__mux2_2
*CAP
1 *5153:A 0.000484238
2 *5177:X 0.000484238
3 *5153:A *5210:A 6.27139e-05
*RES
1 *5177:X *5153:A 13.1025 
*END

*D_NET *246 0.00198188
*CONN
*I *5154:A I *D sky130_fd_sc_hd__bufinv_8
*I *5178:X O *D sky130_fd_sc_hd__mux2_2
*CAP
1 *5154:A 0.000408679
2 *5178:X 0.000408679
3 *5154:A *5176:A0 8.47455e-05
4 *5154:A *5177:A0 0.000208477
5 *5154:A *5238:A 0.000871303
*RES
1 *5178:X *5154:A 17.64 
*END

*D_NET *247 0.00321731
*CONN
*I *5171:A0 I *D sky130_fd_sc_hd__mux2_2
*I *5155:X O *D sky130_fd_sc_hd__buf_2
*CAP
1 *5171:A0 0.00123388
2 *5155:X 0.00123388
3 *5171:A0 *5172:A0 0
4 *5171:A0 *5200:A0 0.000134523
5 *5171:A0 *5200:A1 0.000187766
6 *5171:A0 *308:16 0.000112105
7 spine_top_ow[14] *5171:A0 0
8 *5099:DIODE *5171:A0 1.83847e-05
9 *5128:DIODE *5171:A0 0
10 *5147:A *5171:A0 0
11 *5148:A *5171:A0 0
12 *5189:A *5171:A0 0
13 *5190:A *5171:A0 0.000296775
14 *84:22 *5171:A0 0
*RES
1 *5155:X *5171:A0 29.775 
*END

*D_NET *248 0.000452097
*CONN
*I *5173:A1 I *D sky130_fd_sc_hd__mux2_2
*I *5156:X O *D sky130_fd_sc_hd__buf_2
*CAP
1 *5173:A1 0.000106496
2 *5156:X 0.000106496
3 *5173:A1 *5172:A0 0.000159957
4 *5173:A1 *5173:A0 5.16348e-05
5 *5173:A1 *5237:A 2.75145e-05
6 *238:159 *5173:A1 0
*RES
1 *5156:X *5173:A1 9.54 
*END

*D_NET *249 0.00037497
*CONN
*I *5174:A1 I *D sky130_fd_sc_hd__mux2_2
*I *5157:X O *D sky130_fd_sc_hd__buf_2
*CAP
1 *5174:A1 0.00010633
2 *5157:X 0.00010633
3 *171:44 *5174:A1 0.000162311
*RES
1 *5157:X *5174:A1 4.685 
*END

*D_NET *250 0.0003317
*CONN
*I *5175:A1 I *D sky130_fd_sc_hd__mux2_2
*I *5158:X O *D sky130_fd_sc_hd__buf_2
*CAP
1 *5175:A1 9.69006e-05
2 *5158:X 9.69006e-05
3 *5175:A1 *5202:A0 2.66935e-05
4 *5175:A1 *307:18 8.65961e-05
5 *5151:A *5175:A1 2.46089e-05
*RES
1 *5158:X *5175:A1 8.865 
*END

*D_NET *251 0.000294619
*CONN
*I *5176:A1 I *D sky130_fd_sc_hd__mux2_2
*I *5159:X O *D sky130_fd_sc_hd__buf_2
*CAP
1 *5176:A1 0.000145981
2 *5159:X 0.000145981
3 *5043:A *5176:A1 2.65814e-06
*RES
1 *5159:X *5176:A1 4.685 
*END

*D_NET *252 0.000948147
*CONN
*I *5177:A1 I *D sky130_fd_sc_hd__mux2_2
*I *5160:X O *D sky130_fd_sc_hd__buf_2
*CAP
1 *5177:A1 0.000154834
2 *5160:X 0.000154834
3 *5177:A1 *5176:A0 4.83241e-05
4 *5177:A1 *5210:A 1.34594e-05
5 *5177:A1 *304:28 0.000157551
6 *5176:S *5177:A1 1.52184e-05
7 *5177:S *5177:A1 0.000159048
8 *23:15 *5177:A1 0.000159957
9 *238:229 *5177:A1 8.49205e-05
*RES
1 *5160:X *5177:A1 11.61 
*END

*D_NET *253 0.000136357
*CONN
*I *5178:A1 I *D sky130_fd_sc_hd__mux2_2
*I *5161:X O *D sky130_fd_sc_hd__buf_2
*CAP
1 *5178:A1 2.76428e-05
2 *5161:X 2.76428e-05
3 *5178:A1 *5176:A0 4.05358e-05
4 *23:15 *5178:A1 4.05358e-05
*RES
1 *5161:X *5178:A1 8.07 
*END

*D_NET *254 0.00267827
*CONN
*I *5172:A0 I *D sky130_fd_sc_hd__mux2_2
*I *5162:X O *D sky130_fd_sc_hd__buf_2
*CAP
1 *5172:A0 0.00102698
2 *5162:X 0.00102698
3 *5172:A0 *5173:A0 0.000239548
4 *5172:A0 *5174:A0 0
5 *5172:A0 *5200:A0 0
6 *5172:A0 *5200:A1 0
7 *5172:A0 *304:28 8.65905e-05
8 *5148:A *5172:A0 5.16348e-05
9 *5164:A *5172:A0 0
10 *5171:A0 *5172:A0 0
11 *5171:S *5172:A0 8.65905e-05
12 *5173:A1 *5172:A0 0.000159957
13 *5200:S *5172:A0 0
14 *146:19 *5172:A0 0
15 *238:159 *5172:A0 0
16 *238:216 *5172:A0 0
*RES
1 *5162:X *5172:A0 25.95 
*END

*D_NET *255 0.00105123
*CONN
*I *5173:A0 I *D sky130_fd_sc_hd__mux2_2
*I *5163:X O *D sky130_fd_sc_hd__buf_2
*CAP
1 *5173:A0 0.000237524
2 *5163:X 0.000237524
3 *5173:A0 *5174:A0 0.000161638
4 *5173:A0 *306:18 4.66108e-05
5 *5172:A0 *5173:A0 0.000239548
6 *5173:A1 *5173:A0 5.16348e-05
7 *238:159 *5173:A0 2.96553e-05
8 *238:161 *5173:A0 4.70995e-05
*RES
1 *5163:X *5173:A0 13.365 
*END

*D_NET *256 0.00112861
*CONN
*I *5174:A0 I *D sky130_fd_sc_hd__mux2_2
*I *5164:X O *D sky130_fd_sc_hd__buf_2
*CAP
1 *5174:A0 0.000218209
2 *5164:X 0.000218209
3 *5174:A0 *5208:A 4.82919e-05
4 *5172:A0 *5174:A0 0
5 *5173:A0 *5174:A0 0.000161638
6 *5200:S *5174:A0 0.000160651
7 *238:161 *5174:A0 9.50342e-06
8 *238:163 *5174:A0 0.000312104
*RES
1 *5164:X *5174:A0 13.11 
*END

*D_NET *257 0.000745184
*CONN
*I *5175:A0 I *D sky130_fd_sc_hd__mux2_2
*I *5165:X O *D sky130_fd_sc_hd__buf_2
*CAP
1 *5175:A0 0.000317115
2 *5165:X 0.000317115
3 *5175:A0 *5202:A0 1.43521e-05
4 *5175:A0 *5208:A 0
5 *5166:A *5175:A0 9.66021e-05
6 *5168:A *5175:A0 0
7 *5192:A *5175:A0 0
8 *23:15 *5175:A0 0
*RES
1 *5165:X *5175:A0 12.105 
*END

*D_NET *258 0.00307918
*CONN
*I *5176:A0 I *D sky130_fd_sc_hd__mux2_2
*I *5166:X O *D sky130_fd_sc_hd__buf_2
*CAP
1 *5176:A0 0.00109667
2 *5166:X 0.00109667
3 *5176:A0 *5177:A0 0.0001249
4 *5176:A0 *5178:A0 0.000263814
5 *5176:A0 *304:28 9.37731e-05
6 *5154:A *5176:A0 8.47455e-05
7 *5167:A *5176:A0 9.52367e-05
8 *5176:S *5176:A0 0.000134516
9 *5177:A1 *5176:A0 4.83241e-05
10 *5178:A1 *5176:A0 4.05358e-05
11 *23:15 *5176:A0 0
12 *24:13 *5176:A0 0
13 *24:15 *5176:A0 0
*RES
1 *5166:X *5176:A0 28.395 
*END

*D_NET *259 0.00305214
*CONN
*I *5177:A0 I *D sky130_fd_sc_hd__mux2_2
*I *5167:X O *D sky130_fd_sc_hd__buf_2
*CAP
1 *5177:A0 0.000941817
2 *5167:X 0.000941817
3 pad_uio_oex[4] *5177:A0 0.000835129
4 *5154:A *5177:A0 0.000208477
5 *5176:A0 *5177:A0 0.0001249
6 *24:13 *5177:A0 0
7 *24:15 *5177:A0 0
*RES
1 *5167:X *5177:A0 25.38 
*END

*D_NET *260 0.00105755
*CONN
*I *5178:A0 I *D sky130_fd_sc_hd__mux2_2
*I *5168:X O *D sky130_fd_sc_hd__buf_2
*CAP
1 *5178:A0 0.000267222
2 *5168:X 0.000267222
3 *5176:A0 *5178:A0 0.000263814
4 *23:15 *5178:A0 0.00025929
*RES
1 *5168:X *5178:A0 13.8 
*END

*D_NET *261 0.000236613
*CONN
*I *5171:A1 I *D sky130_fd_sc_hd__mux2_2
*I *5169:X O *D sky130_fd_sc_hd__buf_2
*CAP
1 *5171:A1 9.41631e-05
2 *5169:X 9.41631e-05
3 *5171:A1 *5172:A1 0
4 *5182:A *5171:A1 0
5 *170:73 *5171:A1 4.82863e-05
*RES
1 *5169:X *5171:A1 8.52 
*END

*D_NET *262 0.000702931
*CONN
*I *5172:A1 I *D sky130_fd_sc_hd__mux2_2
*I *5170:X O *D sky130_fd_sc_hd__buf_2
*CAP
1 *5172:A1 0.00026885
2 *5170:X 0.00026885
3 *5172:A1 *304:28 0.00012657
4 *5172:A1 *309:16 0
5 *5171:A1 *5172:A1 0
6 *144:22 *5172:A1 3.86607e-05
7 *146:19 *5172:A1 0
*RES
1 *5170:X *5172:A1 11.25 
*END

*D_NET *263 0.00288087
*CONN
*I *5195:A0 I *D sky130_fd_sc_hd__mux2_2
*I *5179:Y O *D sky130_fd_sc_hd__inv_2
*CAP
1 *5195:A0 0.000690666
2 *5179:Y 0.000690666
3 *5195:A0 *5196:A0 0
4 *5195:A0 *5229:A1 9.34333e-05
5 *5195:A0 *303:18 8.42239e-05
6 *5195:A0 *305:10 0
7 spine_top_ow[4] *5195:A0 0.000140202
8 spine_top_ow[5] *5195:A0 0
9 *5213:A *5195:A0 0.000418044
10 *5218:A *5195:A0 7.21296e-06
11 *5219:A *5195:A0 0.00047601
12 *5220:A *5195:A0 0
13 *156:23 *5195:A0 0.000185405
14 *157:19 *5195:A0 0
15 *238:80 *5195:A0 9.50036e-05
16 *238:105 *5195:A0 0
17 *238:118 *5195:A0 0
*RES
1 *5179:Y *5195:A0 23.31 
*END

*D_NET *264 0.000731633
*CONN
*I *5197:A1 I *D sky130_fd_sc_hd__mux2_2
*I *5180:Y O *D sky130_fd_sc_hd__inv_2
*CAP
1 *5197:A1 0.000181033
2 *5180:Y 0.000181033
3 *5197:A1 *5233:A1 7.4027e-05
4 *5197:A1 *282:8 0.000155704
5 *5197:A1 *304:28 6.74749e-05
6 spine_top_ow[8] *5197:A1 7.23602e-05
*RES
1 *5180:Y *5197:A1 10.245 
*END

*D_NET *265 0.000125232
*CONN
*I *5198:A1 I *D sky130_fd_sc_hd__mux2_2
*I *5181:Y O *D sky130_fd_sc_hd__inv_2
*CAP
1 *5198:A1 4.2348e-05
2 *5181:Y 4.2348e-05
3 *5198:A1 *5233:A1 4.05358e-05
4 *24:32 *5198:A1 0
*RES
1 *5181:Y *5198:A1 8.07 
*END

*D_NET *266 0.000764033
*CONN
*I *5199:A1 I *D sky130_fd_sc_hd__mux2_2
*I *5182:Y O *D sky130_fd_sc_hd__inv_2
*CAP
1 *5199:A1 0.00026148
2 *5182:Y 0.00026148
3 *5199:A1 *5198:A0 0
4 *5199:A1 *5199:A0 0.000154144
5 *5199:A1 *283:16 3.23391e-05
6 *5199:A1 *309:16 4.60584e-05
7 *24:32 *5199:A1 8.53113e-06
*RES
1 *5182:Y *5199:A1 11.175 
*END

*D_NET *267 0.000638555
*CONN
*I *5200:A1 I *D sky130_fd_sc_hd__mux2_2
*I *5183:Y O *D sky130_fd_sc_hd__inv_2
*CAP
1 *5200:A1 0.000165942
2 *5183:Y 0.000165942
3 *5200:A1 *5200:A0 8.88663e-05
4 *5171:A0 *5200:A1 0.000187766
5 *5172:A0 *5200:A1 0
6 *5200:S *5200:A1 3.00381e-05
*RES
1 *5183:Y *5200:A1 10.485 
*END

*D_NET *268 0.00101905
*CONN
*I *5201:A1 I *D sky130_fd_sc_hd__mux2_2
*I *5184:Y O *D sky130_fd_sc_hd__inv_2
*CAP
1 *5201:A1 0.000301731
2 *5184:Y 0.000301731
3 *5201:A1 *304:28 0.000388884
4 *148:21 *5201:A1 2.67022e-05
5 *170:105 *5201:A1 0
*RES
1 *5184:Y *5201:A1 11.625 
*END

*D_NET *269 0.00126364
*CONN
*I *5202:A1 I *D sky130_fd_sc_hd__mux2_2
*I *5185:Y O *D sky130_fd_sc_hd__inv_2
*CAP
1 *5202:A1 0.000383582
2 *5185:Y 0.000383582
3 *5202:A1 *5209:A 0
4 *5202:A1 *304:28 0.000348011
5 *4952:A *5202:A1 7.44375e-05
6 *4953:TE_B *5202:A1 0
7 *143:10 *5202:A1 7.4027e-05
*RES
1 *5185:Y *5202:A1 13.32 
*END

*D_NET *270 0.00332424
*CONN
*I *5196:A0 I *D sky130_fd_sc_hd__mux2_2
*I *5186:Y O *D sky130_fd_sc_hd__inv_2
*CAP
1 *5196:A0 0.000946481
2 *5186:Y 0.000946481
3 *5196:A0 *5195:A1 4.82919e-05
4 *5196:A0 *5196:A1 0.000160488
5 *5196:A0 *5230:A0 0.000200536
6 *5196:A0 *5233:A0 0
7 *5196:A0 *303:18 0
8 spine_top_ow[5] *5196:A0 0.000142462
9 *5045:A *5196:A0 0.000101865
10 *5119:DIODE *5196:A0 0
11 *5193:A *5196:A0 8.696e-05
12 *5194:A *5196:A0 4.82919e-05
13 *5195:A0 *5196:A0 0
14 *5196:S *5196:A0 0
15 *5214:A *5196:A0 0.000418051
16 *5220:A *5196:A0 4.91189e-05
17 *5221:A *5196:A0 0
18 *157:19 *5196:A0 0.000175214
19 *171:77 *5196:A0 0
20 *171:88 *5196:A0 0
*RES
1 *5186:Y *5196:A0 27.51 
*END

*D_NET *271 0.00324064
*CONN
*I *5197:A0 I *D sky130_fd_sc_hd__mux2_2
*I *5187:Y O *D sky130_fd_sc_hd__inv_2
*CAP
1 *5197:A0 0.000633965
2 *5187:Y 0.000633965
3 *5197:A0 *5231:A0 0.000166015
4 *5197:A0 *5232:A0 0.000181152
5 *5197:A0 *5233:A0 0
6 *5197:A0 *304:28 2.05056e-05
7 *5186:A *5197:A0 0.000166346
8 *5197:S *5197:A0 4.82919e-05
9 *160:12 *5197:A0 0
10 *170:41 *5197:A0 0.000119483
11 *170:55 *5197:A0 0.000273887
12 *238:33 *5197:A0 0.000815339
13 *238:46 *5197:A0 0.000181692
*RES
1 *5187:Y *5197:A0 25.8 
*END

*D_NET *272 0.00207836
*CONN
*I *5198:A0 I *D sky130_fd_sc_hd__mux2_2
*I *5188:Y O *D sky130_fd_sc_hd__inv_2
*CAP
1 *5198:A0 0.000840491
2 *5188:Y 0.000840491
3 *5198:A0 *5199:A0 0
4 *5198:A0 *5233:A1 0.000109156
5 *5198:A0 *283:16 0
6 spine_top_ow[8] *5198:A0 0
7 *5199:A1 *5198:A0 0
8 *24:32 *5198:A0 0
9 *160:12 *5198:A0 0.000288226
*RES
1 *5188:Y *5198:A0 22.86 
*END

*D_NET *273 0.00201573
*CONN
*I *5199:A0 I *D sky130_fd_sc_hd__mux2_2
*I *5189:Y O *D sky130_fd_sc_hd__inv_2
*CAP
1 *5199:A0 0.000791217
2 *5189:Y 0.000791217
3 *5199:A0 *283:16 0.00011852
4 *5199:A0 *309:16 0.00016063
5 *5128:DIODE *5199:A0 0
6 *5198:A0 *5199:A0 0
7 *5199:A1 *5199:A0 0.000154144
*RES
1 *5189:Y *5199:A0 20.46 
*END

*D_NET *274 0.00076488
*CONN
*I *5200:A0 I *D sky130_fd_sc_hd__mux2_2
*I *5190:Y O *D sky130_fd_sc_hd__inv_2
*CAP
1 *5200:A0 0.000243939
2 *5190:Y 0.000243939
3 *5171:A0 *5200:A0 0.000134523
4 *5172:A0 *5200:A0 0
5 *5190:A *5200:A0 3.64998e-06
6 *5200:A1 *5200:A0 8.88663e-05
7 *5200:S *5200:A0 4.99619e-05
*RES
1 *5190:Y *5200:A0 12.12 
*END

*D_NET *275 0.00298864
*CONN
*I *5201:A0 I *D sky130_fd_sc_hd__mux2_2
*I *5191:Y O *D sky130_fd_sc_hd__inv_2
*CAP
1 *5201:A0 0.000578777
2 *5191:Y 0.000578777
3 *5201:A0 *5202:A0 0.000962028
4 *4951:TE_B *5201:A0 6.95505e-05
5 *4952:A *5201:A0 0.000159964
6 *5158:A *5201:A0 0.000136884
7 *5175:S *5201:A0 0.000356395
8 *150:8 *5201:A0 0
9 *170:105 *5201:A0 4.24292e-06
10 *170:107 *5201:A0 0.00014202
*RES
1 *5191:Y *5201:A0 21.99 
*END

*D_NET *276 0.002969
*CONN
*I *5202:A0 I *D sky130_fd_sc_hd__mux2_2
*I *5192:Y O *D sky130_fd_sc_hd__inv_2
*CAP
1 *5202:A0 0.000668527
2 *5192:Y 0.000668527
3 *5202:A0 *5208:A 4.44481e-05
4 *5202:A0 *5209:A 8.07718e-05
5 spine_top_ow[24] *5202:A0 0
6 *5151:A *5202:A0 0
7 *5160:A *5202:A0 0
8 *5175:A0 *5202:A0 1.43521e-05
9 *5175:A1 *5202:A0 2.66935e-05
10 *5192:A *5202:A0 0
11 *5201:A0 *5202:A0 0.000962028
12 *23:15 *5202:A0 0
13 *24:32 *5202:A0 0.000348899
14 *150:8 *5202:A0 0
15 *152:20 *5202:A0 0
16 *238:227 *5202:A0 0.000129758
17 *238:229 *5202:A0 2.49909e-05
*RES
1 *5192:Y *5202:A0 23.565 
*END

*D_NET *277 0.000721451
*CONN
*I *5195:A1 I *D sky130_fd_sc_hd__mux2_2
*I *5193:Y O *D sky130_fd_sc_hd__inv_2
*CAP
1 *5195:A1 0.000225396
2 *5193:Y 0.000225396
3 *5195:A1 *280:8 0.000118716
4 *5193:A *5195:A1 6.49981e-05
5 *5196:A0 *5195:A1 4.82919e-05
6 *5196:S *5195:A1 3.86529e-05
*RES
1 *5193:Y *5195:A1 10.59 
*END

*D_NET *278 0.0003753
*CONN
*I *5196:A1 I *D sky130_fd_sc_hd__mux2_2
*I *5194:Y O *D sky130_fd_sc_hd__inv_2
*CAP
1 *5196:A1 0.000107406
2 *5194:Y 0.000107406
3 *5196:A0 *5196:A1 0.000160488
*RES
1 *5194:Y *5196:A1 4.685 
*END

*D_NET *279 0.0141427
*CONN
*I *5203:A I *D sky130_fd_sc_hd__bufinv_8
*I *5195:X O *D sky130_fd_sc_hd__mux2_2
*CAP
1 *5203:A 0.000266237
2 *5195:X 0.000600704
3 *279:16 0.00339342
4 *279:8 0.00372789
5 *279:8 *5206:A 0.000447028
6 *279:8 *281:12 0.00216799
7 *279:8 *282:8 0.00068915
8 *279:16 *5206:A 0.00181326
9 pad_uio_oex[2] *279:16 0
10 pad_uio_out[1] *279:16 0
11 *5015:A *279:16 0.000276747
12 *5039:B *279:8 0.000145184
13 *5047:B *279:8 6.80137e-05
14 *5147:A *279:8 0.000208687
15 *5147:A *279:16 0.000101392
16 *5148:A *279:16 0.000186451
17 *238:118 *279:8 5.05437e-05
*RES
1 *5195:X *279:8 25.3525 
2 *279:8 *279:16 47.2375 
3 *279:16 *5203:A 5.5 
*END

*D_NET *280 0.0111296
*CONN
*I *5204:A I *D sky130_fd_sc_hd__bufinv_8
*I *5196:X O *D sky130_fd_sc_hd__mux2_2
*CAP
1 *5204:A 0.00228026
2 *5196:X 0.000896208
3 *280:8 0.00317647
4 *5013:A *5204:A 0.000764125
5 *5016:A *5204:A 0.000161003
6 *5034:A *5204:A 0.000125262
7 *5041:A *5204:A 0.000704846
8 *5043:A *280:8 7.67415e-06
9 *5045:A *280:8 0.000377601
10 *5148:A *280:8 0.000108844
11 *5193:A *280:8 8.04121e-05
12 *5195:A1 *280:8 0.000118716
13 *203:36 *280:8 4.77757e-05
14 *203:43 *280:8 0.000223822
15 *203:50 *280:8 0.000802711
16 *203:69 *5204:A 9.27255e-06
17 *203:69 *280:8 4.82919e-05
18 *203:86 *5204:A 0.000122337
19 *203:97 *5204:A 0.000276707
20 *203:104 *5204:A 0.000110214
21 *203:181 *5204:A 0.000162975
22 *203:187 *5204:A 0.000228184
23 *203:194 *5204:A 0.000295897
*RES
1 *5196:X *280:8 19.4125 
2 *280:8 *5204:A 44.41 
*END

*D_NET *281 0.0149499
*CONN
*I *5205:A I *D sky130_fd_sc_hd__bufinv_8
*I *5197:X O *D sky130_fd_sc_hd__mux2_2
*CAP
1 *5205:A 0.00131296
2 *5197:X 0.00191161
3 *281:12 0.00322457
4 *5205:A *5206:A 0.00326211
5 *5205:A *5207:A 0
6 *281:12 *282:8 0.000117554
7 pad_uio_out[4] *5205:A 0
8 spine_top_iw[19] *281:12 0
9 *5015:A *5205:A 0.00148371
10 *5037:A *5205:A 0.000905734
11 *5039:A *281:12 2.41376e-05
12 *5147:A *5205:A 0.000119831
13 *5147:A *281:12 0.000313437
14 *5196:S *281:12 2.04902e-05
15 *22:13 *5205:A 0
16 *238:118 *281:12 8.57709e-05
17 *279:8 *281:12 0.00216799
*RES
1 *5197:X *281:12 32.105 
2 *281:12 *5205:A 45.935 
*END

*D_NET *282 0.0129901
*CONN
*I *5206:A I *D sky130_fd_sc_hd__bufinv_8
*I *5198:X O *D sky130_fd_sc_hd__mux2_2
*CAP
1 *5206:A 0.000917992
2 *5198:X 0.00155391
3 *282:8 0.0024719
4 *282:8 *304:28 0.000191439
5 pad_uio_oex[3] *5206:A 0
6 *5015:A *5206:A 0.000131791
7 *5039:B *282:8 0.000239813
8 *5041:A *5206:A 2.89319e-05
9 *5047:B *282:8 0.000122801
10 *5048:A *282:8 4.89295e-05
11 *5147:A *5206:A 0.000109836
12 *5148:A *282:8 0.000290214
13 *5196:S *282:8 4.77757e-05
14 *5197:A1 *282:8 0.000155704
15 *5205:A *5206:A 0.00326211
16 *22:13 *5206:A 3.64367e-05
17 *238:118 *282:8 0.000313528
18 *279:8 *5206:A 0.000447028
19 *279:8 *282:8 0.00068915
20 *279:16 *5206:A 0.00181326
21 *281:12 *282:8 0.000117554
*RES
1 *5198:X *282:8 30.5425 
2 *282:8 *5206:A 42.23 
*END

*D_NET *283 0.0119978
*CONN
*I *5207:A I *D sky130_fd_sc_hd__bufinv_8
*I *5199:X O *D sky130_fd_sc_hd__mux2_2
*CAP
1 *5207:A 0.00259998
2 *5199:X 0.00260243
3 *283:16 0.00520241
4 *283:16 *5229:A1 3.64722e-05
5 *283:16 *5237:A 0.000564609
6 spine_top_iw[2] *5207:A 0.000559624
7 *5047:A *283:16 8.49205e-05
8 *5057:A *5207:A 2.75229e-05
9 *5115:DIODE *283:16 8.40269e-05
10 *5198:A0 *283:16 0
11 *5199:A0 *283:16 0.00011852
12 *5199:A1 *283:16 3.23391e-05
13 *5199:S *283:16 8.49205e-05
14 *5205:A *5207:A 0
*RES
1 *5199:X *283:16 44.3675 
2 *283:16 *5207:A 36.7475 
*END

*D_NET *284 0.00239185
*CONN
*I *5208:A I *D sky130_fd_sc_hd__bufinv_8
*I *5200:X O *D sky130_fd_sc_hd__mux2_2
*CAP
1 *5208:A 0.000920853
2 *5200:X 0.000920853
3 *5151:A *5208:A 5.55705e-05
4 *5174:A0 *5208:A 4.82919e-05
5 *5175:A0 *5208:A 0
6 *5175:S *5208:A 0.000140027
7 *5192:A *5208:A 0.000188226
8 *5200:S *5208:A 7.35813e-05
9 *5202:A0 *5208:A 4.44481e-05
*RES
1 *5200:X *5208:A 22.275 
*END

*D_NET *285 0.00252184
*CONN
*I *5209:A I *D sky130_fd_sc_hd__bufinv_8
*I *5201:X O *D sky130_fd_sc_hd__mux2_2
*CAP
1 *5209:A 0.000951914
2 *5201:X 0.000951914
3 spine_top_ow[23] *5209:A 1.92979e-05
4 *4953:TE_B *5209:A 0.000179564
5 *5136:DIODE *5209:A 0.000188523
6 *5202:A0 *5209:A 8.07718e-05
7 *5202:A1 *5209:A 0
8 *143:10 *5209:A 0
9 *150:8 *5209:A 7.07578e-05
10 *238:227 *5209:A 7.91018e-05
*RES
1 *5201:X *5209:A 23.5725 
*END

*D_NET *286 0.00265673
*CONN
*I *5210:A I *D sky130_fd_sc_hd__bufinv_8
*I *5202:X O *D sky130_fd_sc_hd__mux2_2
*CAP
1 *5210:A 0.000724837
2 *5202:X 0.000724837
3 *5210:A *5241:A 0.000610706
4 pad_uio_oex[5] *5210:A 0
5 *5152:A *5210:A 0.000140628
6 *5153:A *5210:A 6.27139e-05
7 *5177:A1 *5210:A 1.34594e-05
8 *5177:S *5210:A 7.15196e-05
9 *24:13 *5210:A 0
10 *24:32 *5210:A 0.000308031
*RES
1 *5202:X *5210:A 22.455 
*END

*D_NET *287 0.00095392
*CONN
*I *5227:A0 I *D sky130_fd_sc_hd__mux2_2
*I *5211:Y O *D sky130_fd_sc_hd__inv_2
*CAP
1 *5227:A0 0.0002786
2 *5211:Y 0.0002786
3 *5211:A *5227:A0 9.66106e-05
4 *98:26 *5227:A0 0.000300109
*RES
1 *5211:Y *5227:A0 12.45 
*END

*D_NET *288 0.000821868
*CONN
*I *5229:A1 I *D sky130_fd_sc_hd__mux2_2
*I *5212:Y O *D sky130_fd_sc_hd__inv_2
*CAP
1 *5229:A1 0.000226958
2 *5212:Y 0.000226958
3 *5229:A1 *5228:A0 0.000131
4 *4939:A *5229:A1 3.4687e-05
5 *5195:A0 *5229:A1 9.34333e-05
6 *156:23 *5229:A1 7.23602e-05
7 *283:16 *5229:A1 3.64722e-05
*RES
1 *5212:Y *5229:A1 11.7 
*END

*D_NET *289 0.00092431
*CONN
*I *5230:A1 I *D sky130_fd_sc_hd__mux2_2
*I *5213:Y O *D sky130_fd_sc_hd__inv_2
*CAP
1 *5230:A1 0.000166486
2 *5213:Y 0.000166486
3 *5230:A1 *5229:A0 0.000204206
4 *4939:A *5230:A1 0.000229536
5 *5213:A *5230:A1 0.000157595
*RES
1 *5213:Y *5230:A1 11.265 
*END

*D_NET *290 0.000926991
*CONN
*I *5231:A1 I *D sky130_fd_sc_hd__mux2_2
*I *5214:Y O *D sky130_fd_sc_hd__inv_2
*CAP
1 *5231:A1 0.000186531
2 *5214:Y 0.000186531
3 *5231:A1 *5230:A0 0.000157595
4 *4939:A *5231:A1 0.000118081
5 *5119:DIODE *5231:A1 0.000155928
6 *171:58 *5231:A1 0.000122325
*RES
1 *5214:Y *5231:A1 11.265 
*END

*D_NET *291 0.000481138
*CONN
*I *5232:A1 I *D sky130_fd_sc_hd__mux2_2
*I *5215:Y O *D sky130_fd_sc_hd__inv_2
*CAP
1 *5232:A1 0.000156214
2 *5215:Y 0.000156214
3 *5232:A1 *303:18 5.58206e-05
4 *160:12 *5232:A1 4.05358e-05
5 *238:33 *5232:A1 7.23533e-05
*RES
1 *5215:Y *5232:A1 9.555 
*END

*D_NET *292 0.00152768
*CONN
*I *5233:A1 I *D sky130_fd_sc_hd__mux2_2
*I *5216:Y O *D sky130_fd_sc_hd__inv_2
*CAP
1 *5233:A1 0.000428373
2 *5216:Y 0.000428373
3 spine_top_ow[8] *5233:A1 0.000218102
4 *4940:TE_B *5233:A1 0.000155444
5 *5180:A *5233:A1 7.3664e-05
6 *5197:A1 *5233:A1 7.4027e-05
7 *5198:A0 *5233:A1 0.000109156
8 *5198:A1 *5233:A1 4.05358e-05
9 *24:32 *5233:A1 0
*RES
1 *5216:Y *5233:A1 15.69 
*END

*D_NET *293 0.000686965
*CONN
*I *5234:A1 I *D sky130_fd_sc_hd__mux2_2
*I *5217:Y O *D sky130_fd_sc_hd__inv_2
*CAP
1 *5234:A1 0.00022672
2 *5217:Y 0.00022672
3 *4995:A *5234:A1 8.73389e-06
4 *5096:DIODE *5234:A1 0.000138196
5 *5234:S *5234:A1 8.65961e-05
6 *81:26 *5234:A1 0
*RES
1 *5217:Y *5234:A1 11.25 
*END

*D_NET *294 0.000896336
*CONN
*I *5228:A0 I *D sky130_fd_sc_hd__mux2_2
*I *5218:Y O *D sky130_fd_sc_hd__inv_2
*CAP
1 *5228:A0 0.000206594
2 *5218:Y 0.000206594
3 spine_top_ow[3] *5228:A0 7.26629e-05
4 spine_top_ow[4] *5228:A0 3.89528e-05
5 *4939:A *5228:A0 4.99619e-05
6 *5229:A1 *5228:A0 0.000131
7 *155:10 *5228:A0 7.81876e-05
8 *156:23 *5228:A0 4.78859e-05
9 *238:105 *5228:A0 6.44959e-05
*RES
1 *5218:Y *5228:A0 12.855 
*END

*D_NET *295 0.00105101
*CONN
*I *5229:A0 I *D sky130_fd_sc_hd__mux2_2
*I *5219:Y O *D sky130_fd_sc_hd__inv_2
*CAP
1 *5229:A0 0.00028889
2 *5219:Y 0.00028889
3 *5229:A0 *303:18 4.82863e-05
4 *5229:A0 *305:10 0.000115464
5 *4939:A *5229:A0 2.31651e-05
6 *5213:A *5229:A0 2.23485e-05
7 *5214:A *5229:A0 3.47668e-05
8 *5219:A *5229:A0 2.49909e-05
9 *5230:A1 *5229:A0 0.000204206
*RES
1 *5219:Y *5229:A0 12.585 
*END

*D_NET *296 0.0012274
*CONN
*I *5230:A0 I *D sky130_fd_sc_hd__mux2_2
*I *5220:Y O *D sky130_fd_sc_hd__inv_2
*CAP
1 *5230:A0 0.000434633
2 *5220:Y 0.000434633
3 *5230:A0 *5233:A0 0
4 *5196:A0 *5230:A0 0.000200536
5 *5231:A1 *5230:A0 0.000157595
*RES
1 *5220:Y *5230:A0 15 
*END

*D_NET *297 0.0013106
*CONN
*I *5231:A0 I *D sky130_fd_sc_hd__mux2_2
*I *5221:Y O *D sky130_fd_sc_hd__inv_2
*CAP
1 *5231:A0 0.000324029
2 *5221:Y 0.000324029
3 *5231:A0 *5232:A0 0.000141599
4 *5231:A0 *5233:A0 0.000346393
5 *5197:A0 *5231:A0 0.000166015
6 *170:41 *5231:A0 8.53113e-06
*RES
1 *5221:Y *5231:A0 14.7 
*END

*D_NET *298 0.000976402
*CONN
*I *5232:A0 I *D sky130_fd_sc_hd__mux2_2
*I *5222:Y O *D sky130_fd_sc_hd__inv_2
*CAP
1 *5232:A0 0.000214568
2 *5222:Y 0.000214568
3 *5232:A0 *5233:A0 0.000102184
4 *5197:A0 *5232:A0 0.000181152
5 *5231:A0 *5232:A0 0.000141599
6 *238:29 *5232:A0 0.000122331
*RES
1 *5222:Y *5232:A0 13.05 
*END

*D_NET *299 0.00323974
*CONN
*I *5233:A0 I *D sky130_fd_sc_hd__mux2_2
*I *5223:Y O *D sky130_fd_sc_hd__inv_2
*CAP
1 *5233:A0 0.000805908
2 *5223:Y 0.000805908
3 *5233:A0 *304:28 2.75145e-05
4 *5233:A0 *306:18 3.42142e-05
5 spine_top_ow[6] *5233:A0 0.00011239
6 *5047:A *5233:A0 9.16226e-05
7 *5119:DIODE *5233:A0 4.11198e-05
8 *5186:A *5233:A0 6.73665e-05
9 *5196:A0 *5233:A0 0
10 *5197:A0 *5233:A0 0
11 *5199:S *5233:A0 0.000122337
12 *5221:A *5233:A0 0
13 *5222:A *5233:A0 7.70938e-05
14 *5223:A *5233:A0 2.11084e-05
15 *5230:A0 *5233:A0 0
16 *5231:A0 *5233:A0 0.000346393
17 *5232:A0 *5233:A0 0.000102184
18 *5233:S *5233:A0 0.000122331
19 *170:41 *5233:A0 8.76846e-05
20 *170:55 *5233:A0 0.000195548
21 *171:64 *5233:A0 0.000179015
*RES
1 *5223:Y *5233:A0 27.21 
*END

*D_NET *300 0.00050705
*CONN
*I *5234:A0 I *D sky130_fd_sc_hd__mux2_2
*I *5224:Y O *D sky130_fd_sc_hd__inv_2
*CAP
1 *5234:A0 0.000126945
2 *5224:Y 0.000126945
3 *5096:DIODE *5234:A0 0.000116165
4 *24:54 *5234:A0 7.22354e-05
5 *83:22 *5234:A0 6.47594e-05
*RES
1 *5224:Y *5234:A0 9.72 
*END

*D_NET *301 0.000691278
*CONN
*I *5227:A1 I *D sky130_fd_sc_hd__mux2_2
*I *5225:Y O *D sky130_fd_sc_hd__inv_2
*CAP
1 *5227:A1 0.00028998
2 *5225:Y 0.00028998
3 *5218:A *5227:A1 7.4027e-05
4 *170:10 *5227:A1 3.72916e-05
*RES
1 *5225:Y *5227:A1 10.935 
*END

*D_NET *302 0.000931355
*CONN
*I *5228:A1 I *D sky130_fd_sc_hd__mux2_2
*I *5226:Y O *D sky130_fd_sc_hd__inv_2
*CAP
1 *5228:A1 0.000307978
2 *5226:Y 0.000307978
3 *4950:A *5228:A1 6.97118e-05
4 *4950:TE_B *5228:A1 2.75229e-05
5 *5047:A *5228:A1 1.80653e-05
6 *5114:DIODE *5228:A1 0.000162311
7 *5226:A *5228:A1 3.77879e-05
*RES
1 *5226:Y *5228:A1 7.91 
*END

*D_NET *303 0.00834235
*CONN
*I *5235:A I *D sky130_fd_sc_hd__bufinv_8
*I *5227:X O *D sky130_fd_sc_hd__mux2_2
*CAP
1 *5235:A 0
2 *5227:X 0.00149697
3 *303:18 0.00149697
4 *303:18 *307:18 0.00188634
5 *303:18 *308:16 0.00287321
6 *5119:DIODE *303:18 3.00381e-05
7 *5158:A *303:18 4.66108e-05
8 *5195:A0 *303:18 8.42239e-05
9 *5196:A0 *303:18 0
10 *5213:A *303:18 3.09164e-05
11 *5214:A *303:18 0.00015896
12 *5215:A *303:18 8.57024e-05
13 *5229:A0 *303:18 4.82863e-05
14 *5232:A1 *303:18 5.58206e-05
15 *238:29 *303:18 4.82919e-05
*RES
1 *5227:X *303:18 49.64 
2 *303:18 *5235:A 1.6 
*END

*D_NET *304 0.00973018
*CONN
*I *5236:A I *D sky130_fd_sc_hd__bufinv_8
*I *5228:X O *D sky130_fd_sc_hd__mux2_2
*CAP
1 *5236:A 0.00102094
2 *5228:X 0.00158205
3 *304:28 0.00260299
4 *4950:A *304:28 0.000266721
5 *5047:A *304:28 0.000642695
6 *5148:A *304:28 0.000118286
7 *5152:A *5236:A 0.000102821
8 *5171:S *304:28 0.000176511
9 *5172:A0 *304:28 8.65905e-05
10 *5172:A1 *304:28 0.00012657
11 *5176:A0 *304:28 9.37731e-05
12 *5177:A1 *304:28 0.000157551
13 *5182:A *304:28 0.000123225
14 *5197:A0 *304:28 2.05056e-05
15 *5197:A1 *304:28 6.74749e-05
16 *5197:S *304:28 8.65961e-05
17 *5198:S *304:28 0.000270941
18 *5201:A1 *304:28 0.000388884
19 *5202:A1 *304:28 0.000348011
20 *5233:A0 *304:28 2.75145e-05
21 *24:13 *304:28 0
22 *24:32 *304:28 0.000134696
23 *170:55 *304:28 0.000155574
24 *171:88 *304:28 0
25 *238:218 *304:28 0.000417525
26 *238:227 *304:28 0.000424625
27 *238:229 *304:28 9.56742e-05
28 *282:8 *304:28 0.000191439
*RES
1 *5228:X *304:28 46.53 
2 *304:28 *5236:A 15.865 
*END

*D_NET *305 0.00732742
*CONN
*I *5237:A I *D sky130_fd_sc_hd__bufinv_8
*I *5229:X O *D sky130_fd_sc_hd__mux2_2
*CAP
1 *5237:A 0.00288983
2 *5229:X 0.000176393
3 *305:10 0.00306623
4 *5156:A *5237:A 0.000198945
5 *5173:A1 *5237:A 2.75145e-05
6 *5195:A0 *305:10 0
7 *5213:A *305:10 6.65804e-05
8 *5214:A *305:10 0.000156318
9 *5229:A0 *305:10 0.000115464
10 *157:19 *305:10 6.55328e-05
11 *283:16 *5237:A 0.000564609
*RES
1 *5229:X *305:10 10.295 
2 *305:10 *5237:A 46.225 
*END

*D_NET *306 0.00818964
*CONN
*I *5238:A I *D sky130_fd_sc_hd__bufinv_8
*I *5230:X O *D sky130_fd_sc_hd__mux2_2
*CAP
1 *5238:A 0.00171212
2 *5230:X 0.000915733
3 *306:18 0.00262785
4 *4948:TE_B *5238:A 0.000300613
5 *4954:TE_B *5238:A 0.000311282
6 *4958:A *306:18 4.21973e-05
7 *5119:DIODE *306:18 0.0002014
8 *5154:A *5238:A 0.000871303
9 *5161:A *5238:A 4.82919e-05
10 *5173:A0 *306:18 4.66108e-05
11 *5173:S *5238:A 8.65961e-05
12 *5173:S *306:18 3.00399e-05
13 *5233:A0 *306:18 3.42142e-05
14 *170:29 *306:18 0.00015639
15 *170:129 *5238:A 0.000114024
16 *171:64 *306:18 0.000137578
17 *241:6 *306:18 0.000553403
*RES
1 *5230:X *306:18 23.42 
2 *306:18 *5238:A 29.32 
*END

*D_NET *307 0.00793565
*CONN
*I *5239:A I *D sky130_fd_sc_hd__bufinv_8
*I *5231:X O *D sky130_fd_sc_hd__mux2_2
*CAP
1 *5239:A 0
2 *5231:X 0.00270482
3 *307:18 0.00270482
4 *307:18 *308:16 0.000252685
5 *5158:A *307:18 4.82919e-05
6 *5175:A1 *307:18 8.65961e-05
7 *160:12 *307:18 0.000162332
8 *238:33 *307:18 8.97642e-05
9 *303:18 *307:18 0.00188634
*RES
1 *5231:X *307:18 48.695 
2 *307:18 *5239:A 1.6 
*END

*D_NET *308 0.00803934
*CONN
*I *5240:A I *D sky130_fd_sc_hd__bufinv_8
*I *5232:X O *D sky130_fd_sc_hd__mux2_2
*CAP
1 *5240:A 0.000116451
2 *5232:X 0.00221633
3 *308:16 0.00233278
4 pad_uo_out[0] *5240:A 0
5 *5128:DIODE *308:16 0.000135777
6 *5171:A0 *308:16 0.000112105
7 *303:18 *308:16 0.00287321
8 *307:18 *308:16 0.000252685
*RES
1 *5232:X *308:16 48.7825 
2 *308:16 *5240:A 5.49 
*END

*D_NET *309 0.00830192
*CONN
*I *5241:A I *D sky130_fd_sc_hd__bufinv_8
*I *5233:X O *D sky130_fd_sc_hd__mux2_2
*CAP
1 *5241:A 0.0012849
2 *5233:X 0.00100019
3 *309:16 0.00228509
4 spine_top_ow[16] *309:16 2.03356e-05
5 spine_top_ow[19] *309:16 1.10537e-05
6 *4947:TE_B *309:16 0.000204907
7 *4953:A *309:16 0.000576624
8 *5047:A *309:16 0.000367044
9 *5137:DIODE *5241:A 1.1392e-05
10 *5172:A1 *309:16 0
11 *5199:A0 *309:16 0.00016063
12 *5199:A1 *309:16 4.60584e-05
13 *5199:S *309:16 0.000343773
14 *5210:A *5241:A 0.000610706
15 *146:19 *309:16 0.000420419
16 *148:21 *309:16 0.000191109
17 *171:158 *309:16 3.66286e-05
18 *238:157 *309:16 0.000731058
*RES
1 *5233:X *309:16 31.5575 
2 *309:16 *5241:A 20.695 
*END

*D_NET *310 0.00687434
*CONN
*I *5242:A I *D sky130_fd_sc_hd__bufinv_8
*I *5234:X O *D sky130_fd_sc_hd__mux2_2
*CAP
1 *5242:A 0.00246433
2 *5234:X 0.00246433
3 spine_bot_ow[14] *5242:A 4.36438e-05
4 spine_bot_ow[17] *5242:A 0
5 *4926:A *5242:A 3.09088e-05
6 *4926:TE_B *5242:A 2.75229e-05
7 *4995:A *5242:A 0.000464505
8 *5102:DIODE *5242:A 0
9 *85:22 *5242:A 0.000415624
10 *166:43 *5242:A 0.000151541
11 *166:47 *5242:A 0.000313258
12 *166:102 *5242:A 0.000167593
13 *166:104 *5242:A 0.000331086
*RES
1 *5234:X *5242:A 43.335 
*END
