*SPEF "ieee 1481-1999"
*DESIGN "tt_um_chip_rom"
*DATE "15:09:54 Wednesday September 16, 2026"
*VENDOR "The OpenROAD Project"
*PROGRAM "OpenROAD"
*VERSION "341650e72dad0dc8571822ff8c5d9c5e365327f7"
*DESIGN_FLOW "NAME_SCOPE LOCAL" "PIN_CAP NONE"
*DIVIDER /
*DELIMITER :
*BUS_DELIMITER []
*T_UNIT 1 NS
*C_UNIT 1 PF
*R_UNIT 1 OHM
*L_UNIT 1 HENRY

*NAME_MAP
*3 clk
*4 ena
*5 rst_n
*6 ui_in[0]
*7 ui_in[1]
*8 ui_in[2]
*9 ui_in[3]
*10 ui_in[4]
*11 ui_in[5]
*12 ui_in[6]
*13 ui_in[7]
*14 uio_in[0]
*15 uio_in[1]
*16 uio_in[2]
*17 uio_in[3]
*18 uio_in[4]
*19 uio_in[5]
*20 uio_in[6]
*21 uio_in[7]
*22 net24
*23 net25
*24 net26
*25 net27
*26 net28
*27 net29
*28 net30
*29 net31
*30 net47
*31 net48
*32 net49
*33 net50
*34 net51
*35 net52
*36 net53
*37 net54
*38 uo_out[0]
*39 uo_out[1]
*40 uo_out[2]
*41 uo_out[3]
*42 uo_out[4]
*43 uo_out[5]
*44 uo_out[6]
*45 uo_out[7]
*46 _000_
*47 _001_
*48 _002_
*49 _003_
*50 _004_
*51 _005_
*52 _006_
*53 _007_
*54 _008_
*55 _009_
*56 _010_
*57 _011_
*58 _012_
*59 _013_
*60 _014_
*61 _015_
*62 _016_
*63 _017_
*64 _018_
*65 _019_
*66 _020_
*67 _021_
*68 _022_
*69 _023_
*70 _024_
*71 _025_
*72 _026_
*73 _027_
*74 _028_
*75 _029_
*76 _030_
*77 _031_
*78 _032_
*79 _033_
*80 _034_
*81 _035_
*82 _036_
*83 _037_
*84 _038_
*85 _039_
*86 _040_
*87 _041_
*88 _042_
*89 _043_
*90 _044_
*91 _045_
*92 _046_
*93 _047_
*94 _048_
*95 _049_
*96 _050_
*97 _051_
*98 _052_
*99 _053_
*100 _054_
*101 _055_
*102 _056_
*103 _057_
*104 _058_
*105 _059_
*106 _060_
*107 _061_
*108 _062_
*109 _063_
*110 _064_
*111 _065_
*112 _066_
*113 _067_
*114 _068_
*115 _069_
*116 _070_
*117 _071_
*118 _072_
*119 _073_
*120 _074_
*121 _075_
*122 _076_
*123 _077_
*124 _078_
*125 _079_
*126 _080_
*127 _081_
*128 _082_
*129 _083_
*130 _084_
*131 _085_
*132 _086_
*133 _087_
*134 _088_
*135 _089_
*136 _090_
*137 _091_
*138 _092_
*139 _093_
*140 _094_
*141 _095_
*142 _096_
*143 _097_
*144 _098_
*145 _099_
*146 _100_
*147 _101_
*148 _102_
*149 _103_
*150 _104_
*151 _105_
*152 _106_
*153 _107_
*154 _108_
*155 _109_
*156 _110_
*157 _111_
*158 _112_
*159 _113_
*160 _114_
*161 _115_
*162 _116_
*163 _117_
*164 _118_
*165 _119_
*166 _120_
*167 _121_
*168 _122_
*169 _123_
*170 _124_
*171 _125_
*172 _126_
*173 _127_
*174 _128_
*175 _129_
*176 _130_
*177 _131_
*178 _132_
*179 _133_
*180 _134_
*181 _135_
*182 _136_
*183 _137_
*184 _138_
*185 _139_
*186 _140_
*187 _141_
*188 _142_
*189 _143_
*190 _144_
*191 _145_
*192 _146_
*193 _147_
*194 _148_
*195 _149_
*196 _150_
*197 _151_
*198 _152_
*199 addr_counter\[0\]
*200 addr_counter\[1\]
*201 addr_counter\[2\]
*202 addr_counter\[3\]
*203 addr_counter\[4\]
*204 addr_counter\[5\]
*205 addr_counter\[6\]
*206 addr_counter\[7\]
*207 clknet_0_clk
*208 clknet_1_0__leaf_clk
*209 clknet_1_1__leaf_clk
*210 net1
*211 net10
*212 net11
*213 net12
*214 net13
*215 net14
*216 net15
*217 net16
*218 net17
*219 net18
*220 net19
*221 net2
*222 net20
*223 net21
*224 net22
*225 net23
*226 net3
*227 net32
*228 net33
*229 net34
*230 net35
*231 net36
*232 net37
*233 net38
*234 net39
*235 net4
*236 net40
*237 net41
*238 net42
*239 net43
*240 net44
*241 net45
*242 net46
*243 net5
*244 net55
*245 net56
*246 net57
*247 net58
*248 net59
*249 net6
*250 net60
*251 net7
*252 net8
*253 net9
*254 FILLER_0_100
*255 FILLER_0_103
*256 FILLER_0_106
*257 FILLER_0_109
*258 FILLER_0_113
*259 FILLER_0_116
*260 FILLER_0_119
*261 FILLER_0_12
*262 FILLER_0_122
*263 FILLER_0_125
*264 FILLER_0_128
*265 FILLER_0_131
*266 FILLER_0_134
*267 FILLER_0_137
*268 FILLER_0_141
*269 FILLER_0_144
*270 FILLER_0_147
*271 FILLER_0_15
*272 FILLER_0_150
*273 FILLER_0_153
*274 FILLER_0_156
*275 FILLER_0_159
*276 FILLER_0_162
*277 FILLER_0_165
*278 FILLER_0_169
*279 FILLER_0_172
*280 FILLER_0_175
*281 FILLER_0_178
*282 FILLER_0_18
*283 FILLER_0_181
*284 FILLER_0_184
*285 FILLER_0_187
*286 FILLER_0_190
*287 FILLER_0_193
*288 FILLER_0_197
*289 FILLER_0_200
*290 FILLER_0_203
*291 FILLER_0_206
*292 FILLER_0_209
*293 FILLER_0_21
*294 FILLER_0_212
*295 FILLER_0_215
*296 FILLER_0_218
*297 FILLER_0_221
*298 FILLER_0_225
*299 FILLER_0_228
*300 FILLER_0_231
*301 FILLER_0_234
*302 FILLER_0_237
*303 FILLER_0_24
*304 FILLER_0_240
*305 FILLER_0_243
*306 FILLER_0_246
*307 FILLER_0_249
*308 FILLER_0_253
*309 FILLER_0_256
*310 FILLER_0_259
*311 FILLER_0_262
*312 FILLER_0_265
*313 FILLER_0_268
*314 FILLER_0_27
*315 FILLER_0_271
*316 FILLER_0_274
*317 FILLER_0_277
*318 FILLER_0_281
*319 FILLER_0_284
*320 FILLER_0_287
*321 FILLER_0_29
*322 FILLER_0_290
*323 FILLER_0_293
*324 FILLER_0_296
*325 FILLER_0_299
*326 FILLER_0_3
*327 FILLER_0_302
*328 FILLER_0_305
*329 FILLER_0_309
*330 FILLER_0_312
*331 FILLER_0_315
*332 FILLER_0_318
*333 FILLER_0_32
*334 FILLER_0_321
*335 FILLER_0_324
*336 FILLER_0_327
*337 FILLER_0_330
*338 FILLER_0_333
*339 FILLER_0_35
*340 FILLER_0_38
*341 FILLER_0_41
*342 FILLER_0_44
*343 FILLER_0_47
*344 FILLER_0_50
*345 FILLER_0_53
*346 FILLER_0_57
*347 FILLER_0_6
*348 FILLER_0_60
*349 FILLER_0_63
*350 FILLER_0_66
*351 FILLER_0_69
*352 FILLER_0_72
*353 FILLER_0_75
*354 FILLER_0_78
*355 FILLER_0_81
*356 FILLER_0_85
*357 FILLER_0_88
*358 FILLER_0_9
*359 FILLER_0_91
*360 FILLER_0_94
*361 FILLER_0_97
*362 FILLER_10_100
*363 FILLER_10_103
*364 FILLER_10_106
*365 FILLER_10_109
*366 FILLER_10_112
*367 FILLER_10_115
*368 FILLER_10_118
*369 FILLER_10_12
*370 FILLER_10_121
*371 FILLER_10_124
*372 FILLER_10_127
*373 FILLER_10_130
*374 FILLER_10_133
*375 FILLER_10_136
*376 FILLER_10_139
*377 FILLER_10_141
*378 FILLER_10_144
*379 FILLER_10_147
*380 FILLER_10_15
*381 FILLER_10_150
*382 FILLER_10_153
*383 FILLER_10_156
*384 FILLER_10_159
*385 FILLER_10_162
*386 FILLER_10_165
*387 FILLER_10_168
*388 FILLER_10_171
*389 FILLER_10_174
*390 FILLER_10_177
*391 FILLER_10_18
*392 FILLER_10_180
*393 FILLER_10_183
*394 FILLER_10_186
*395 FILLER_10_189
*396 FILLER_10_192
*397 FILLER_10_195
*398 FILLER_10_197
*399 FILLER_10_200
*400 FILLER_10_203
*401 FILLER_10_206
*402 FILLER_10_209
*403 FILLER_10_21
*404 FILLER_10_212
*405 FILLER_10_215
*406 FILLER_10_218
*407 FILLER_10_221
*408 FILLER_10_224
*409 FILLER_10_227
*410 FILLER_10_230
*411 FILLER_10_233
*412 FILLER_10_236
*413 FILLER_10_239
*414 FILLER_10_24
*415 FILLER_10_242
*416 FILLER_10_245
*417 FILLER_10_248
*418 FILLER_10_251
*419 FILLER_10_253
*420 FILLER_10_256
*421 FILLER_10_259
*422 FILLER_10_262
*423 FILLER_10_265
*424 FILLER_10_268
*425 FILLER_10_27
*426 FILLER_10_271
*427 FILLER_10_274
*428 FILLER_10_277
*429 FILLER_10_280
*430 FILLER_10_283
*431 FILLER_10_286
*432 FILLER_10_289
*433 FILLER_10_29
*434 FILLER_10_292
*435 FILLER_10_295
*436 FILLER_10_298
*437 FILLER_10_3
*438 FILLER_10_301
*439 FILLER_10_304
*440 FILLER_10_307
*441 FILLER_10_309
*442 FILLER_10_312
*443 FILLER_10_315
*444 FILLER_10_318
*445 FILLER_10_32
*446 FILLER_10_321
*447 FILLER_10_324
*448 FILLER_10_327
*449 FILLER_10_330
*450 FILLER_10_333
*451 FILLER_10_35
*452 FILLER_10_38
*453 FILLER_10_41
*454 FILLER_10_44
*455 FILLER_10_47
*456 FILLER_10_50
*457 FILLER_10_53
*458 FILLER_10_56
*459 FILLER_10_59
*460 FILLER_10_6
*461 FILLER_10_62
*462 FILLER_10_65
*463 FILLER_10_68
*464 FILLER_10_71
*465 FILLER_10_74
*466 FILLER_10_77
*467 FILLER_10_80
*468 FILLER_10_83
*469 FILLER_10_85
*470 FILLER_10_88
*471 FILLER_10_9
*472 FILLER_10_91
*473 FILLER_10_94
*474 FILLER_10_97
*475 FILLER_11_102
*476 FILLER_11_105
*477 FILLER_11_108
*478 FILLER_11_111
*479 FILLER_11_113
*480 FILLER_11_116
*481 FILLER_11_119
*482 FILLER_11_12
*483 FILLER_11_122
*484 FILLER_11_125
*485 FILLER_11_128
*486 FILLER_11_131
*487 FILLER_11_134
*488 FILLER_11_137
*489 FILLER_11_140
*490 FILLER_11_143
*491 FILLER_11_146
*492 FILLER_11_149
*493 FILLER_11_15
*494 FILLER_11_152
*495 FILLER_11_155
*496 FILLER_11_158
*497 FILLER_11_161
*498 FILLER_11_164
*499 FILLER_11_167
*500 FILLER_11_169
*501 FILLER_11_172
*502 FILLER_11_175
*503 FILLER_11_178
*504 FILLER_11_18
*505 FILLER_11_181
*506 FILLER_11_184
*507 FILLER_11_187
*508 FILLER_11_190
*509 FILLER_11_193
*510 FILLER_11_196
*511 FILLER_11_199
*512 FILLER_11_202
*513 FILLER_11_205
*514 FILLER_11_208
*515 FILLER_11_21
*516 FILLER_11_211
*517 FILLER_11_214
*518 FILLER_11_217
*519 FILLER_11_220
*520 FILLER_11_223
*521 FILLER_11_225
*522 FILLER_11_228
*523 FILLER_11_231
*524 FILLER_11_234
*525 FILLER_11_237
*526 FILLER_11_24
*527 FILLER_11_240
*528 FILLER_11_243
*529 FILLER_11_246
*530 FILLER_11_249
*531 FILLER_11_252
*532 FILLER_11_255
*533 FILLER_11_258
*534 FILLER_11_261
*535 FILLER_11_264
*536 FILLER_11_267
*537 FILLER_11_27
*538 FILLER_11_270
*539 FILLER_11_273
*540 FILLER_11_276
*541 FILLER_11_279
*542 FILLER_11_281
*543 FILLER_11_284
*544 FILLER_11_287
*545 FILLER_11_290
*546 FILLER_11_293
*547 FILLER_11_296
*548 FILLER_11_299
*549 FILLER_11_3
*550 FILLER_11_30
*551 FILLER_11_302
*552 FILLER_11_305
*553 FILLER_11_308
*554 FILLER_11_311
*555 FILLER_11_314
*556 FILLER_11_317
*557 FILLER_11_320
*558 FILLER_11_323
*559 FILLER_11_326
*560 FILLER_11_329
*561 FILLER_11_33
*562 FILLER_11_332
*563 FILLER_11_36
*564 FILLER_11_39
*565 FILLER_11_42
*566 FILLER_11_45
*567 FILLER_11_48
*568 FILLER_11_51
*569 FILLER_11_54
*570 FILLER_11_57
*571 FILLER_11_6
*572 FILLER_11_60
*573 FILLER_11_63
*574 FILLER_11_66
*575 FILLER_11_69
*576 FILLER_11_72
*577 FILLER_11_75
*578 FILLER_11_78
*579 FILLER_11_81
*580 FILLER_11_84
*581 FILLER_11_87
*582 FILLER_11_9
*583 FILLER_11_90
*584 FILLER_11_93
*585 FILLER_11_96
*586 FILLER_11_99
*587 FILLER_12_100
*588 FILLER_12_103
*589 FILLER_12_106
*590 FILLER_12_109
*591 FILLER_12_112
*592 FILLER_12_115
*593 FILLER_12_118
*594 FILLER_12_12
*595 FILLER_12_121
*596 FILLER_12_124
*597 FILLER_12_127
*598 FILLER_12_130
*599 FILLER_12_133
*600 FILLER_12_136
*601 FILLER_12_139
*602 FILLER_12_141
*603 FILLER_12_144
*604 FILLER_12_147
*605 FILLER_12_15
*606 FILLER_12_150
*607 FILLER_12_153
*608 FILLER_12_156
*609 FILLER_12_159
*610 FILLER_12_162
*611 FILLER_12_165
*612 FILLER_12_168
*613 FILLER_12_171
*614 FILLER_12_174
*615 FILLER_12_177
*616 FILLER_12_18
*617 FILLER_12_180
*618 FILLER_12_183
*619 FILLER_12_186
*620 FILLER_12_189
*621 FILLER_12_192
*622 FILLER_12_195
*623 FILLER_12_197
*624 FILLER_12_200
*625 FILLER_12_203
*626 FILLER_12_206
*627 FILLER_12_209
*628 FILLER_12_21
*629 FILLER_12_212
*630 FILLER_12_215
*631 FILLER_12_218
*632 FILLER_12_221
*633 FILLER_12_224
*634 FILLER_12_227
*635 FILLER_12_230
*636 FILLER_12_233
*637 FILLER_12_236
*638 FILLER_12_239
*639 FILLER_12_24
*640 FILLER_12_242
*641 FILLER_12_245
*642 FILLER_12_248
*643 FILLER_12_251
*644 FILLER_12_253
*645 FILLER_12_256
*646 FILLER_12_259
*647 FILLER_12_262
*648 FILLER_12_265
*649 FILLER_12_268
*650 FILLER_12_27
*651 FILLER_12_271
*652 FILLER_12_274
*653 FILLER_12_277
*654 FILLER_12_280
*655 FILLER_12_283
*656 FILLER_12_286
*657 FILLER_12_289
*658 FILLER_12_29
*659 FILLER_12_292
*660 FILLER_12_295
*661 FILLER_12_298
*662 FILLER_12_3
*663 FILLER_12_301
*664 FILLER_12_304
*665 FILLER_12_307
*666 FILLER_12_309
*667 FILLER_12_312
*668 FILLER_12_315
*669 FILLER_12_318
*670 FILLER_12_32
*671 FILLER_12_321
*672 FILLER_12_324
*673 FILLER_12_327
*674 FILLER_12_330
*675 FILLER_12_333
*676 FILLER_12_35
*677 FILLER_12_38
*678 FILLER_12_41
*679 FILLER_12_44
*680 FILLER_12_47
*681 FILLER_12_50
*682 FILLER_12_53
*683 FILLER_12_56
*684 FILLER_12_59
*685 FILLER_12_6
*686 FILLER_12_62
*687 FILLER_12_65
*688 FILLER_12_68
*689 FILLER_12_71
*690 FILLER_12_74
*691 FILLER_12_77
*692 FILLER_12_80
*693 FILLER_12_83
*694 FILLER_12_85
*695 FILLER_12_88
*696 FILLER_12_9
*697 FILLER_12_91
*698 FILLER_12_94
*699 FILLER_12_97
*700 FILLER_13_102
*701 FILLER_13_105
*702 FILLER_13_108
*703 FILLER_13_111
*704 FILLER_13_113
*705 FILLER_13_116
*706 FILLER_13_119
*707 FILLER_13_12
*708 FILLER_13_122
*709 FILLER_13_125
*710 FILLER_13_128
*711 FILLER_13_131
*712 FILLER_13_134
*713 FILLER_13_137
*714 FILLER_13_140
*715 FILLER_13_143
*716 FILLER_13_146
*717 FILLER_13_149
*718 FILLER_13_15
*719 FILLER_13_152
*720 FILLER_13_155
*721 FILLER_13_158
*722 FILLER_13_161
*723 FILLER_13_164
*724 FILLER_13_167
*725 FILLER_13_169
*726 FILLER_13_172
*727 FILLER_13_175
*728 FILLER_13_178
*729 FILLER_13_18
*730 FILLER_13_181
*731 FILLER_13_184
*732 FILLER_13_187
*733 FILLER_13_190
*734 FILLER_13_193
*735 FILLER_13_196
*736 FILLER_13_199
*737 FILLER_13_202
*738 FILLER_13_205
*739 FILLER_13_208
*740 FILLER_13_21
*741 FILLER_13_211
*742 FILLER_13_214
*743 FILLER_13_217
*744 FILLER_13_220
*745 FILLER_13_223
*746 FILLER_13_225
*747 FILLER_13_228
*748 FILLER_13_231
*749 FILLER_13_234
*750 FILLER_13_237
*751 FILLER_13_24
*752 FILLER_13_240
*753 FILLER_13_243
*754 FILLER_13_246
*755 FILLER_13_249
*756 FILLER_13_252
*757 FILLER_13_255
*758 FILLER_13_258
*759 FILLER_13_261
*760 FILLER_13_264
*761 FILLER_13_267
*762 FILLER_13_27
*763 FILLER_13_270
*764 FILLER_13_273
*765 FILLER_13_276
*766 FILLER_13_279
*767 FILLER_13_281
*768 FILLER_13_284
*769 FILLER_13_287
*770 FILLER_13_290
*771 FILLER_13_293
*772 FILLER_13_296
*773 FILLER_13_299
*774 FILLER_13_3
*775 FILLER_13_30
*776 FILLER_13_302
*777 FILLER_13_305
*778 FILLER_13_308
*779 FILLER_13_311
*780 FILLER_13_314
*781 FILLER_13_317
*782 FILLER_13_320
*783 FILLER_13_323
*784 FILLER_13_326
*785 FILLER_13_329
*786 FILLER_13_33
*787 FILLER_13_332
*788 FILLER_13_36
*789 FILLER_13_39
*790 FILLER_13_42
*791 FILLER_13_45
*792 FILLER_13_48
*793 FILLER_13_51
*794 FILLER_13_54
*795 FILLER_13_57
*796 FILLER_13_6
*797 FILLER_13_60
*798 FILLER_13_63
*799 FILLER_13_66
*800 FILLER_13_69
*801 FILLER_13_72
*802 FILLER_13_75
*803 FILLER_13_78
*804 FILLER_13_81
*805 FILLER_13_84
*806 FILLER_13_87
*807 FILLER_13_9
*808 FILLER_13_90
*809 FILLER_13_93
*810 FILLER_13_96
*811 FILLER_13_99
*812 FILLER_14_100
*813 FILLER_14_103
*814 FILLER_14_106
*815 FILLER_14_109
*816 FILLER_14_112
*817 FILLER_14_115
*818 FILLER_14_118
*819 FILLER_14_12
*820 FILLER_14_121
*821 FILLER_14_124
*822 FILLER_14_127
*823 FILLER_14_130
*824 FILLER_14_133
*825 FILLER_14_136
*826 FILLER_14_139
*827 FILLER_14_141
*828 FILLER_14_144
*829 FILLER_14_147
*830 FILLER_14_15
*831 FILLER_14_150
*832 FILLER_14_153
*833 FILLER_14_156
*834 FILLER_14_159
*835 FILLER_14_162
*836 FILLER_14_165
*837 FILLER_14_168
*838 FILLER_14_171
*839 FILLER_14_174
*840 FILLER_14_177
*841 FILLER_14_18
*842 FILLER_14_180
*843 FILLER_14_183
*844 FILLER_14_186
*845 FILLER_14_189
*846 FILLER_14_192
*847 FILLER_14_195
*848 FILLER_14_197
*849 FILLER_14_200
*850 FILLER_14_203
*851 FILLER_14_206
*852 FILLER_14_209
*853 FILLER_14_21
*854 FILLER_14_212
*855 FILLER_14_215
*856 FILLER_14_218
*857 FILLER_14_221
*858 FILLER_14_224
*859 FILLER_14_227
*860 FILLER_14_230
*861 FILLER_14_233
*862 FILLER_14_236
*863 FILLER_14_239
*864 FILLER_14_24
*865 FILLER_14_242
*866 FILLER_14_245
*867 FILLER_14_248
*868 FILLER_14_251
*869 FILLER_14_253
*870 FILLER_14_256
*871 FILLER_14_259
*872 FILLER_14_262
*873 FILLER_14_265
*874 FILLER_14_268
*875 FILLER_14_27
*876 FILLER_14_271
*877 FILLER_14_274
*878 FILLER_14_277
*879 FILLER_14_280
*880 FILLER_14_283
*881 FILLER_14_286
*882 FILLER_14_289
*883 FILLER_14_29
*884 FILLER_14_292
*885 FILLER_14_295
*886 FILLER_14_298
*887 FILLER_14_3
*888 FILLER_14_301
*889 FILLER_14_304
*890 FILLER_14_307
*891 FILLER_14_309
*892 FILLER_14_312
*893 FILLER_14_315
*894 FILLER_14_318
*895 FILLER_14_32
*896 FILLER_14_321
*897 FILLER_14_324
*898 FILLER_14_327
*899 FILLER_14_330
*900 FILLER_14_333
*901 FILLER_14_35
*902 FILLER_14_38
*903 FILLER_14_41
*904 FILLER_14_44
*905 FILLER_14_47
*906 FILLER_14_50
*907 FILLER_14_53
*908 FILLER_14_56
*909 FILLER_14_59
*910 FILLER_14_6
*911 FILLER_14_62
*912 FILLER_14_65
*913 FILLER_14_68
*914 FILLER_14_71
*915 FILLER_14_74
*916 FILLER_14_77
*917 FILLER_14_80
*918 FILLER_14_83
*919 FILLER_14_85
*920 FILLER_14_88
*921 FILLER_14_9
*922 FILLER_14_91
*923 FILLER_14_94
*924 FILLER_14_97
*925 FILLER_15_102
*926 FILLER_15_105
*927 FILLER_15_108
*928 FILLER_15_111
*929 FILLER_15_113
*930 FILLER_15_116
*931 FILLER_15_119
*932 FILLER_15_12
*933 FILLER_15_122
*934 FILLER_15_125
*935 FILLER_15_128
*936 FILLER_15_131
*937 FILLER_15_134
*938 FILLER_15_137
*939 FILLER_15_140
*940 FILLER_15_143
*941 FILLER_15_146
*942 FILLER_15_149
*943 FILLER_15_15
*944 FILLER_15_152
*945 FILLER_15_155
*946 FILLER_15_158
*947 FILLER_15_161
*948 FILLER_15_164
*949 FILLER_15_167
*950 FILLER_15_169
*951 FILLER_15_172
*952 FILLER_15_175
*953 FILLER_15_178
*954 FILLER_15_18
*955 FILLER_15_181
*956 FILLER_15_184
*957 FILLER_15_187
*958 FILLER_15_190
*959 FILLER_15_193
*960 FILLER_15_196
*961 FILLER_15_199
*962 FILLER_15_202
*963 FILLER_15_205
*964 FILLER_15_208
*965 FILLER_15_21
*966 FILLER_15_211
*967 FILLER_15_214
*968 FILLER_15_217
*969 FILLER_15_220
*970 FILLER_15_223
*971 FILLER_15_225
*972 FILLER_15_228
*973 FILLER_15_231
*974 FILLER_15_234
*975 FILLER_15_237
*976 FILLER_15_24
*977 FILLER_15_240
*978 FILLER_15_243
*979 FILLER_15_246
*980 FILLER_15_249
*981 FILLER_15_252
*982 FILLER_15_255
*983 FILLER_15_258
*984 FILLER_15_261
*985 FILLER_15_264
*986 FILLER_15_267
*987 FILLER_15_27
*988 FILLER_15_270
*989 FILLER_15_273
*990 FILLER_15_276
*991 FILLER_15_279
*992 FILLER_15_281
*993 FILLER_15_284
*994 FILLER_15_287
*995 FILLER_15_290
*996 FILLER_15_293
*997 FILLER_15_296
*998 FILLER_15_299
*999 FILLER_15_3
*1000 FILLER_15_30
*1001 FILLER_15_302
*1002 FILLER_15_305
*1003 FILLER_15_308
*1004 FILLER_15_311
*1005 FILLER_15_314
*1006 FILLER_15_317
*1007 FILLER_15_320
*1008 FILLER_15_323
*1009 FILLER_15_326
*1010 FILLER_15_329
*1011 FILLER_15_33
*1012 FILLER_15_332
*1013 FILLER_15_36
*1014 FILLER_15_39
*1015 FILLER_15_42
*1016 FILLER_15_45
*1017 FILLER_15_48
*1018 FILLER_15_51
*1019 FILLER_15_54
*1020 FILLER_15_57
*1021 FILLER_15_6
*1022 FILLER_15_60
*1023 FILLER_15_63
*1024 FILLER_15_66
*1025 FILLER_15_69
*1026 FILLER_15_72
*1027 FILLER_15_75
*1028 FILLER_15_78
*1029 FILLER_15_81
*1030 FILLER_15_84
*1031 FILLER_15_87
*1032 FILLER_15_9
*1033 FILLER_15_90
*1034 FILLER_15_93
*1035 FILLER_15_96
*1036 FILLER_15_99
*1037 FILLER_16_100
*1038 FILLER_16_103
*1039 FILLER_16_106
*1040 FILLER_16_109
*1041 FILLER_16_112
*1042 FILLER_16_115
*1043 FILLER_16_118
*1044 FILLER_16_12
*1045 FILLER_16_121
*1046 FILLER_16_124
*1047 FILLER_16_127
*1048 FILLER_16_130
*1049 FILLER_16_133
*1050 FILLER_16_136
*1051 FILLER_16_139
*1052 FILLER_16_141
*1053 FILLER_16_144
*1054 FILLER_16_147
*1055 FILLER_16_15
*1056 FILLER_16_150
*1057 FILLER_16_153
*1058 FILLER_16_156
*1059 FILLER_16_159
*1060 FILLER_16_162
*1061 FILLER_16_165
*1062 FILLER_16_168
*1063 FILLER_16_171
*1064 FILLER_16_174
*1065 FILLER_16_177
*1066 FILLER_16_18
*1067 FILLER_16_180
*1068 FILLER_16_183
*1069 FILLER_16_186
*1070 FILLER_16_189
*1071 FILLER_16_192
*1072 FILLER_16_195
*1073 FILLER_16_197
*1074 FILLER_16_200
*1075 FILLER_16_203
*1076 FILLER_16_206
*1077 FILLER_16_209
*1078 FILLER_16_21
*1079 FILLER_16_212
*1080 FILLER_16_215
*1081 FILLER_16_218
*1082 FILLER_16_221
*1083 FILLER_16_224
*1084 FILLER_16_227
*1085 FILLER_16_230
*1086 FILLER_16_233
*1087 FILLER_16_236
*1088 FILLER_16_239
*1089 FILLER_16_24
*1090 FILLER_16_242
*1091 FILLER_16_245
*1092 FILLER_16_248
*1093 FILLER_16_251
*1094 FILLER_16_253
*1095 FILLER_16_256
*1096 FILLER_16_259
*1097 FILLER_16_262
*1098 FILLER_16_265
*1099 FILLER_16_268
*1100 FILLER_16_27
*1101 FILLER_16_271
*1102 FILLER_16_274
*1103 FILLER_16_277
*1104 FILLER_16_280
*1105 FILLER_16_283
*1106 FILLER_16_286
*1107 FILLER_16_289
*1108 FILLER_16_29
*1109 FILLER_16_292
*1110 FILLER_16_295
*1111 FILLER_16_298
*1112 FILLER_16_3
*1113 FILLER_16_301
*1114 FILLER_16_304
*1115 FILLER_16_307
*1116 FILLER_16_309
*1117 FILLER_16_312
*1118 FILLER_16_315
*1119 FILLER_16_318
*1120 FILLER_16_32
*1121 FILLER_16_321
*1122 FILLER_16_324
*1123 FILLER_16_327
*1124 FILLER_16_330
*1125 FILLER_16_333
*1126 FILLER_16_35
*1127 FILLER_16_38
*1128 FILLER_16_41
*1129 FILLER_16_44
*1130 FILLER_16_47
*1131 FILLER_16_50
*1132 FILLER_16_53
*1133 FILLER_16_56
*1134 FILLER_16_59
*1135 FILLER_16_6
*1136 FILLER_16_62
*1137 FILLER_16_65
*1138 FILLER_16_68
*1139 FILLER_16_71
*1140 FILLER_16_74
*1141 FILLER_16_77
*1142 FILLER_16_80
*1143 FILLER_16_83
*1144 FILLER_16_85
*1145 FILLER_16_88
*1146 FILLER_16_9
*1147 FILLER_16_91
*1148 FILLER_16_94
*1149 FILLER_16_97
*1150 FILLER_17_102
*1151 FILLER_17_105
*1152 FILLER_17_108
*1153 FILLER_17_111
*1154 FILLER_17_113
*1155 FILLER_17_116
*1156 FILLER_17_119
*1157 FILLER_17_12
*1158 FILLER_17_122
*1159 FILLER_17_125
*1160 FILLER_17_128
*1161 FILLER_17_131
*1162 FILLER_17_134
*1163 FILLER_17_137
*1164 FILLER_17_140
*1165 FILLER_17_143
*1166 FILLER_17_146
*1167 FILLER_17_149
*1168 FILLER_17_15
*1169 FILLER_17_152
*1170 FILLER_17_155
*1171 FILLER_17_158
*1172 FILLER_17_161
*1173 FILLER_17_164
*1174 FILLER_17_167
*1175 FILLER_17_169
*1176 FILLER_17_172
*1177 FILLER_17_175
*1178 FILLER_17_178
*1179 FILLER_17_18
*1180 FILLER_17_181
*1181 FILLER_17_184
*1182 FILLER_17_187
*1183 FILLER_17_190
*1184 FILLER_17_193
*1185 FILLER_17_196
*1186 FILLER_17_199
*1187 FILLER_17_202
*1188 FILLER_17_205
*1189 FILLER_17_208
*1190 FILLER_17_21
*1191 FILLER_17_211
*1192 FILLER_17_214
*1193 FILLER_17_217
*1194 FILLER_17_220
*1195 FILLER_17_223
*1196 FILLER_17_225
*1197 FILLER_17_228
*1198 FILLER_17_231
*1199 FILLER_17_234
*1200 FILLER_17_237
*1201 FILLER_17_24
*1202 FILLER_17_240
*1203 FILLER_17_243
*1204 FILLER_17_246
*1205 FILLER_17_249
*1206 FILLER_17_252
*1207 FILLER_17_255
*1208 FILLER_17_258
*1209 FILLER_17_261
*1210 FILLER_17_264
*1211 FILLER_17_267
*1212 FILLER_17_27
*1213 FILLER_17_270
*1214 FILLER_17_273
*1215 FILLER_17_276
*1216 FILLER_17_279
*1217 FILLER_17_281
*1218 FILLER_17_284
*1219 FILLER_17_287
*1220 FILLER_17_290
*1221 FILLER_17_293
*1222 FILLER_17_296
*1223 FILLER_17_299
*1224 FILLER_17_3
*1225 FILLER_17_30
*1226 FILLER_17_302
*1227 FILLER_17_305
*1228 FILLER_17_308
*1229 FILLER_17_311
*1230 FILLER_17_314
*1231 FILLER_17_317
*1232 FILLER_17_320
*1233 FILLER_17_323
*1234 FILLER_17_326
*1235 FILLER_17_329
*1236 FILLER_17_33
*1237 FILLER_17_332
*1238 FILLER_17_36
*1239 FILLER_17_39
*1240 FILLER_17_42
*1241 FILLER_17_45
*1242 FILLER_17_48
*1243 FILLER_17_51
*1244 FILLER_17_54
*1245 FILLER_17_57
*1246 FILLER_17_6
*1247 FILLER_17_60
*1248 FILLER_17_63
*1249 FILLER_17_66
*1250 FILLER_17_69
*1251 FILLER_17_72
*1252 FILLER_17_75
*1253 FILLER_17_78
*1254 FILLER_17_81
*1255 FILLER_17_84
*1256 FILLER_17_87
*1257 FILLER_17_9
*1258 FILLER_17_90
*1259 FILLER_17_93
*1260 FILLER_17_96
*1261 FILLER_17_99
*1262 FILLER_18_111
*1263 FILLER_18_114
*1264 FILLER_18_117
*1265 FILLER_18_12
*1266 FILLER_18_120
*1267 FILLER_18_123
*1268 FILLER_18_126
*1269 FILLER_18_129
*1270 FILLER_18_132
*1271 FILLER_18_135
*1272 FILLER_18_138
*1273 FILLER_18_141
*1274 FILLER_18_144
*1275 FILLER_18_147
*1276 FILLER_18_15
*1277 FILLER_18_150
*1278 FILLER_18_153
*1279 FILLER_18_156
*1280 FILLER_18_159
*1281 FILLER_18_162
*1282 FILLER_18_165
*1283 FILLER_18_168
*1284 FILLER_18_171
*1285 FILLER_18_174
*1286 FILLER_18_177
*1287 FILLER_18_18
*1288 FILLER_18_180
*1289 FILLER_18_183
*1290 FILLER_18_186
*1291 FILLER_18_189
*1292 FILLER_18_192
*1293 FILLER_18_195
*1294 FILLER_18_197
*1295 FILLER_18_200
*1296 FILLER_18_203
*1297 FILLER_18_206
*1298 FILLER_18_209
*1299 FILLER_18_21
*1300 FILLER_18_212
*1301 FILLER_18_215
*1302 FILLER_18_218
*1303 FILLER_18_221
*1304 FILLER_18_224
*1305 FILLER_18_227
*1306 FILLER_18_230
*1307 FILLER_18_233
*1308 FILLER_18_236
*1309 FILLER_18_239
*1310 FILLER_18_24
*1311 FILLER_18_242
*1312 FILLER_18_245
*1313 FILLER_18_248
*1314 FILLER_18_251
*1315 FILLER_18_253
*1316 FILLER_18_256
*1317 FILLER_18_259
*1318 FILLER_18_262
*1319 FILLER_18_265
*1320 FILLER_18_268
*1321 FILLER_18_27
*1322 FILLER_18_271
*1323 FILLER_18_274
*1324 FILLER_18_277
*1325 FILLER_18_280
*1326 FILLER_18_283
*1327 FILLER_18_286
*1328 FILLER_18_289
*1329 FILLER_18_29
*1330 FILLER_18_292
*1331 FILLER_18_295
*1332 FILLER_18_298
*1333 FILLER_18_3
*1334 FILLER_18_301
*1335 FILLER_18_304
*1336 FILLER_18_307
*1337 FILLER_18_309
*1338 FILLER_18_312
*1339 FILLER_18_315
*1340 FILLER_18_318
*1341 FILLER_18_32
*1342 FILLER_18_321
*1343 FILLER_18_324
*1344 FILLER_18_327
*1345 FILLER_18_330
*1346 FILLER_18_333
*1347 FILLER_18_35
*1348 FILLER_18_38
*1349 FILLER_18_41
*1350 FILLER_18_44
*1351 FILLER_18_47
*1352 FILLER_18_50
*1353 FILLER_18_53
*1354 FILLER_18_56
*1355 FILLER_18_59
*1356 FILLER_18_6
*1357 FILLER_18_62
*1358 FILLER_18_65
*1359 FILLER_18_68
*1360 FILLER_18_71
*1361 FILLER_18_74
*1362 FILLER_18_77
*1363 FILLER_18_80
*1364 FILLER_18_83
*1365 FILLER_18_85
*1366 FILLER_18_88
*1367 FILLER_18_9
*1368 FILLER_18_91
*1369 FILLER_18_94
*1370 FILLER_18_97
*1371 FILLER_19_100
*1372 FILLER_19_103
*1373 FILLER_19_106
*1374 FILLER_19_111
*1375 FILLER_19_113
*1376 FILLER_19_116
*1377 FILLER_19_12
*1378 FILLER_19_127
*1379 FILLER_19_130
*1380 FILLER_19_133
*1381 FILLER_19_136
*1382 FILLER_19_139
*1383 FILLER_19_142
*1384 FILLER_19_145
*1385 FILLER_19_148
*1386 FILLER_19_15
*1387 FILLER_19_151
*1388 FILLER_19_154
*1389 FILLER_19_169
*1390 FILLER_19_172
*1391 FILLER_19_175
*1392 FILLER_19_178
*1393 FILLER_19_18
*1394 FILLER_19_181
*1395 FILLER_19_184
*1396 FILLER_19_187
*1397 FILLER_19_190
*1398 FILLER_19_193
*1399 FILLER_19_196
*1400 FILLER_19_199
*1401 FILLER_19_202
*1402 FILLER_19_21
*1403 FILLER_19_225
*1404 FILLER_19_228
*1405 FILLER_19_231
*1406 FILLER_19_234
*1407 FILLER_19_237
*1408 FILLER_19_24
*1409 FILLER_19_240
*1410 FILLER_19_243
*1411 FILLER_19_246
*1412 FILLER_19_249
*1413 FILLER_19_252
*1414 FILLER_19_255
*1415 FILLER_19_258
*1416 FILLER_19_261
*1417 FILLER_19_264
*1418 FILLER_19_267
*1419 FILLER_19_27
*1420 FILLER_19_270
*1421 FILLER_19_273
*1422 FILLER_19_276
*1423 FILLER_19_279
*1424 FILLER_19_281
*1425 FILLER_19_284
*1426 FILLER_19_287
*1427 FILLER_19_290
*1428 FILLER_19_293
*1429 FILLER_19_296
*1430 FILLER_19_299
*1431 FILLER_19_3
*1432 FILLER_19_30
*1433 FILLER_19_302
*1434 FILLER_19_305
*1435 FILLER_19_308
*1436 FILLER_19_311
*1437 FILLER_19_314
*1438 FILLER_19_317
*1439 FILLER_19_320
*1440 FILLER_19_323
*1441 FILLER_19_326
*1442 FILLER_19_329
*1443 FILLER_19_33
*1444 FILLER_19_332
*1445 FILLER_19_36
*1446 FILLER_19_39
*1447 FILLER_19_42
*1448 FILLER_19_45
*1449 FILLER_19_48
*1450 FILLER_19_51
*1451 FILLER_19_54
*1452 FILLER_19_57
*1453 FILLER_19_6
*1454 FILLER_19_60
*1455 FILLER_19_63
*1456 FILLER_19_79
*1457 FILLER_19_82
*1458 FILLER_19_85
*1459 FILLER_19_88
*1460 FILLER_19_9
*1461 FILLER_19_91
*1462 FILLER_19_94
*1463 FILLER_19_97
*1464 FILLER_1_102
*1465 FILLER_1_105
*1466 FILLER_1_108
*1467 FILLER_1_111
*1468 FILLER_1_113
*1469 FILLER_1_116
*1470 FILLER_1_119
*1471 FILLER_1_12
*1472 FILLER_1_122
*1473 FILLER_1_125
*1474 FILLER_1_128
*1475 FILLER_1_131
*1476 FILLER_1_134
*1477 FILLER_1_137
*1478 FILLER_1_140
*1479 FILLER_1_143
*1480 FILLER_1_146
*1481 FILLER_1_149
*1482 FILLER_1_15
*1483 FILLER_1_152
*1484 FILLER_1_155
*1485 FILLER_1_158
*1486 FILLER_1_161
*1487 FILLER_1_164
*1488 FILLER_1_167
*1489 FILLER_1_169
*1490 FILLER_1_172
*1491 FILLER_1_175
*1492 FILLER_1_178
*1493 FILLER_1_18
*1494 FILLER_1_181
*1495 FILLER_1_184
*1496 FILLER_1_187
*1497 FILLER_1_190
*1498 FILLER_1_193
*1499 FILLER_1_196
*1500 FILLER_1_199
*1501 FILLER_1_202
*1502 FILLER_1_205
*1503 FILLER_1_208
*1504 FILLER_1_21
*1505 FILLER_1_211
*1506 FILLER_1_214
*1507 FILLER_1_217
*1508 FILLER_1_220
*1509 FILLER_1_223
*1510 FILLER_1_225
*1511 FILLER_1_228
*1512 FILLER_1_231
*1513 FILLER_1_234
*1514 FILLER_1_237
*1515 FILLER_1_24
*1516 FILLER_1_240
*1517 FILLER_1_243
*1518 FILLER_1_246
*1519 FILLER_1_249
*1520 FILLER_1_252
*1521 FILLER_1_255
*1522 FILLER_1_258
*1523 FILLER_1_261
*1524 FILLER_1_264
*1525 FILLER_1_267
*1526 FILLER_1_27
*1527 FILLER_1_270
*1528 FILLER_1_273
*1529 FILLER_1_276
*1530 FILLER_1_279
*1531 FILLER_1_281
*1532 FILLER_1_284
*1533 FILLER_1_287
*1534 FILLER_1_290
*1535 FILLER_1_293
*1536 FILLER_1_296
*1537 FILLER_1_299
*1538 FILLER_1_3
*1539 FILLER_1_30
*1540 FILLER_1_302
*1541 FILLER_1_305
*1542 FILLER_1_308
*1543 FILLER_1_311
*1544 FILLER_1_314
*1545 FILLER_1_317
*1546 FILLER_1_320
*1547 FILLER_1_323
*1548 FILLER_1_326
*1549 FILLER_1_329
*1550 FILLER_1_33
*1551 FILLER_1_332
*1552 FILLER_1_36
*1553 FILLER_1_39
*1554 FILLER_1_42
*1555 FILLER_1_45
*1556 FILLER_1_48
*1557 FILLER_1_51
*1558 FILLER_1_54
*1559 FILLER_1_57
*1560 FILLER_1_6
*1561 FILLER_1_60
*1562 FILLER_1_63
*1563 FILLER_1_66
*1564 FILLER_1_69
*1565 FILLER_1_72
*1566 FILLER_1_75
*1567 FILLER_1_78
*1568 FILLER_1_81
*1569 FILLER_1_84
*1570 FILLER_1_87
*1571 FILLER_1_9
*1572 FILLER_1_90
*1573 FILLER_1_93
*1574 FILLER_1_96
*1575 FILLER_1_99
*1576 FILLER_20_100
*1577 FILLER_20_103
*1578 FILLER_20_106
*1579 FILLER_20_109
*1580 FILLER_20_112
*1581 FILLER_20_115
*1582 FILLER_20_12
*1583 FILLER_20_125
*1584 FILLER_20_128
*1585 FILLER_20_131
*1586 FILLER_20_134
*1587 FILLER_20_137
*1588 FILLER_20_141
*1589 FILLER_20_144
*1590 FILLER_20_147
*1591 FILLER_20_15
*1592 FILLER_20_150
*1593 FILLER_20_153
*1594 FILLER_20_158
*1595 FILLER_20_161
*1596 FILLER_20_164
*1597 FILLER_20_167
*1598 FILLER_20_170
*1599 FILLER_20_173
*1600 FILLER_20_176
*1601 FILLER_20_179
*1602 FILLER_20_18
*1603 FILLER_20_182
*1604 FILLER_20_185
*1605 FILLER_20_197
*1606 FILLER_20_200
*1607 FILLER_20_203
*1608 FILLER_20_206
*1609 FILLER_20_209
*1610 FILLER_20_21
*1611 FILLER_20_212
*1612 FILLER_20_215
*1613 FILLER_20_218
*1614 FILLER_20_221
*1615 FILLER_20_224
*1616 FILLER_20_227
*1617 FILLER_20_230
*1618 FILLER_20_233
*1619 FILLER_20_236
*1620 FILLER_20_239
*1621 FILLER_20_24
*1622 FILLER_20_242
*1623 FILLER_20_253
*1624 FILLER_20_256
*1625 FILLER_20_259
*1626 FILLER_20_262
*1627 FILLER_20_265
*1628 FILLER_20_268
*1629 FILLER_20_27
*1630 FILLER_20_271
*1631 FILLER_20_274
*1632 FILLER_20_277
*1633 FILLER_20_280
*1634 FILLER_20_283
*1635 FILLER_20_286
*1636 FILLER_20_289
*1637 FILLER_20_29
*1638 FILLER_20_292
*1639 FILLER_20_295
*1640 FILLER_20_298
*1641 FILLER_20_3
*1642 FILLER_20_301
*1643 FILLER_20_304
*1644 FILLER_20_307
*1645 FILLER_20_309
*1646 FILLER_20_312
*1647 FILLER_20_315
*1648 FILLER_20_318
*1649 FILLER_20_32
*1650 FILLER_20_321
*1651 FILLER_20_324
*1652 FILLER_20_327
*1653 FILLER_20_330
*1654 FILLER_20_333
*1655 FILLER_20_35
*1656 FILLER_20_50
*1657 FILLER_20_53
*1658 FILLER_20_56
*1659 FILLER_20_59
*1660 FILLER_20_6
*1661 FILLER_20_62
*1662 FILLER_20_65
*1663 FILLER_20_68
*1664 FILLER_20_80
*1665 FILLER_20_83
*1666 FILLER_20_85
*1667 FILLER_20_88
*1668 FILLER_20_9
*1669 FILLER_20_91
*1670 FILLER_20_94
*1671 FILLER_20_97
*1672 FILLER_21_101
*1673 FILLER_21_104
*1674 FILLER_21_113
*1675 FILLER_21_12
*1676 FILLER_21_123
*1677 FILLER_21_126
*1678 FILLER_21_129
*1679 FILLER_21_132
*1680 FILLER_21_135
*1681 FILLER_21_138
*1682 FILLER_21_141
*1683 FILLER_21_144
*1684 FILLER_21_147
*1685 FILLER_21_15
*1686 FILLER_21_150
*1687 FILLER_21_163
*1688 FILLER_21_166
*1689 FILLER_21_169
*1690 FILLER_21_172
*1691 FILLER_21_175
*1692 FILLER_21_178
*1693 FILLER_21_18
*1694 FILLER_21_181
*1695 FILLER_21_184
*1696 FILLER_21_197
*1697 FILLER_21_208
*1698 FILLER_21_21
*1699 FILLER_21_211
*1700 FILLER_21_214
*1701 FILLER_21_217
*1702 FILLER_21_220
*1703 FILLER_21_223
*1704 FILLER_21_225
*1705 FILLER_21_228
*1706 FILLER_21_231
*1707 FILLER_21_234
*1708 FILLER_21_237
*1709 FILLER_21_24
*1710 FILLER_21_261
*1711 FILLER_21_264
*1712 FILLER_21_267
*1713 FILLER_21_27
*1714 FILLER_21_270
*1715 FILLER_21_273
*1716 FILLER_21_3
*1717 FILLER_21_30
*1718 FILLER_21_301
*1719 FILLER_21_304
*1720 FILLER_21_307
*1721 FILLER_21_310
*1722 FILLER_21_313
*1723 FILLER_21_319
*1724 FILLER_21_322
*1725 FILLER_21_325
*1726 FILLER_21_328
*1727 FILLER_21_33
*1728 FILLER_21_331
*1729 FILLER_21_334
*1730 FILLER_21_44
*1731 FILLER_21_47
*1732 FILLER_21_50
*1733 FILLER_21_53
*1734 FILLER_21_57
*1735 FILLER_21_6
*1736 FILLER_21_60
*1737 FILLER_21_63
*1738 FILLER_21_66
*1739 FILLER_21_69
*1740 FILLER_21_83
*1741 FILLER_21_86
*1742 FILLER_21_89
*1743 FILLER_21_9
*1744 FILLER_21_92
*1745 FILLER_21_95
*1746 FILLER_21_98
*1747 FILLER_22_100
*1748 FILLER_22_103
*1749 FILLER_22_106
*1750 FILLER_22_109
*1751 FILLER_22_112
*1752 FILLER_22_115
*1753 FILLER_22_118
*1754 FILLER_22_12
*1755 FILLER_22_121
*1756 FILLER_22_128
*1757 FILLER_22_131
*1758 FILLER_22_134
*1759 FILLER_22_137
*1760 FILLER_22_141
*1761 FILLER_22_144
*1762 FILLER_22_147
*1763 FILLER_22_15
*1764 FILLER_22_150
*1765 FILLER_22_153
*1766 FILLER_22_156
*1767 FILLER_22_163
*1768 FILLER_22_166
*1769 FILLER_22_169
*1770 FILLER_22_172
*1771 FILLER_22_175
*1772 FILLER_22_178
*1773 FILLER_22_18
*1774 FILLER_22_181
*1775 FILLER_22_184
*1776 FILLER_22_187
*1777 FILLER_22_190
*1778 FILLER_22_193
*1779 FILLER_22_197
*1780 FILLER_22_200
*1781 FILLER_22_203
*1782 FILLER_22_206
*1783 FILLER_22_209
*1784 FILLER_22_21
*1785 FILLER_22_212
*1786 FILLER_22_215
*1787 FILLER_22_218
*1788 FILLER_22_221
*1789 FILLER_22_224
*1790 FILLER_22_227
*1791 FILLER_22_230
*1792 FILLER_22_233
*1793 FILLER_22_236
*1794 FILLER_22_239
*1795 FILLER_22_24
*1796 FILLER_22_242
*1797 FILLER_22_251
*1798 FILLER_22_260
*1799 FILLER_22_263
*1800 FILLER_22_266
*1801 FILLER_22_269
*1802 FILLER_22_27
*1803 FILLER_22_272
*1804 FILLER_22_275
*1805 FILLER_22_284
*1806 FILLER_22_287
*1807 FILLER_22_29
*1808 FILLER_22_291
*1809 FILLER_22_294
*1810 FILLER_22_297
*1811 FILLER_22_3
*1812 FILLER_22_300
*1813 FILLER_22_303
*1814 FILLER_22_306
*1815 FILLER_22_309
*1816 FILLER_22_312
*1817 FILLER_22_315
*1818 FILLER_22_32
*1819 FILLER_22_323
*1820 FILLER_22_326
*1821 FILLER_22_329
*1822 FILLER_22_332
*1823 FILLER_22_35
*1824 FILLER_22_38
*1825 FILLER_22_41
*1826 FILLER_22_44
*1827 FILLER_22_47
*1828 FILLER_22_50
*1829 FILLER_22_53
*1830 FILLER_22_56
*1831 FILLER_22_59
*1832 FILLER_22_6
*1833 FILLER_22_62
*1834 FILLER_22_65
*1835 FILLER_22_68
*1836 FILLER_22_71
*1837 FILLER_22_82
*1838 FILLER_22_85
*1839 FILLER_22_88
*1840 FILLER_22_9
*1841 FILLER_22_91
*1842 FILLER_22_94
*1843 FILLER_22_97
*1844 FILLER_23_101
*1845 FILLER_23_104
*1846 FILLER_23_107
*1847 FILLER_23_110
*1848 FILLER_23_12
*1849 FILLER_23_120
*1850 FILLER_23_123
*1851 FILLER_23_126
*1852 FILLER_23_129
*1853 FILLER_23_132
*1854 FILLER_23_135
*1855 FILLER_23_138
*1856 FILLER_23_149
*1857 FILLER_23_15
*1858 FILLER_23_152
*1859 FILLER_23_155
*1860 FILLER_23_158
*1861 FILLER_23_161
*1862 FILLER_23_164
*1863 FILLER_23_167
*1864 FILLER_23_169
*1865 FILLER_23_172
*1866 FILLER_23_175
*1867 FILLER_23_178
*1868 FILLER_23_18
*1869 FILLER_23_181
*1870 FILLER_23_184
*1871 FILLER_23_187
*1872 FILLER_23_195
*1873 FILLER_23_198
*1874 FILLER_23_201
*1875 FILLER_23_204
*1876 FILLER_23_207
*1877 FILLER_23_21
*1878 FILLER_23_210
*1879 FILLER_23_213
*1880 FILLER_23_216
*1881 FILLER_23_219
*1882 FILLER_23_229
*1883 FILLER_23_232
*1884 FILLER_23_235
*1885 FILLER_23_238
*1886 FILLER_23_24
*1887 FILLER_23_241
*1888 FILLER_23_244
*1889 FILLER_23_247
*1890 FILLER_23_250
*1891 FILLER_23_253
*1892 FILLER_23_256
*1893 FILLER_23_259
*1894 FILLER_23_267
*1895 FILLER_23_270
*1896 FILLER_23_273
*1897 FILLER_23_276
*1898 FILLER_23_279
*1899 FILLER_23_281
*1900 FILLER_23_284
*1901 FILLER_23_287
*1902 FILLER_23_290
*1903 FILLER_23_293
*1904 FILLER_23_296
*1905 FILLER_23_299
*1906 FILLER_23_3
*1907 FILLER_23_30
*1908 FILLER_23_302
*1909 FILLER_23_305
*1910 FILLER_23_33
*1911 FILLER_23_330
*1912 FILLER_23_333
*1913 FILLER_23_36
*1914 FILLER_23_39
*1915 FILLER_23_42
*1916 FILLER_23_45
*1917 FILLER_23_48
*1918 FILLER_23_51
*1919 FILLER_23_54
*1920 FILLER_23_57
*1921 FILLER_23_6
*1922 FILLER_23_60
*1923 FILLER_23_63
*1924 FILLER_23_66
*1925 FILLER_23_83
*1926 FILLER_23_86
*1927 FILLER_23_89
*1928 FILLER_23_9
*1929 FILLER_23_92
*1930 FILLER_23_95
*1931 FILLER_23_98
*1932 FILLER_24_100
*1933 FILLER_24_103
*1934 FILLER_24_110
*1935 FILLER_24_113
*1936 FILLER_24_116
*1937 FILLER_24_119
*1938 FILLER_24_12
*1939 FILLER_24_122
*1940 FILLER_24_125
*1941 FILLER_24_128
*1942 FILLER_24_131
*1943 FILLER_24_134
*1944 FILLER_24_137
*1945 FILLER_24_141
*1946 FILLER_24_150
*1947 FILLER_24_153
*1948 FILLER_24_156
*1949 FILLER_24_159
*1950 FILLER_24_162
*1951 FILLER_24_165
*1952 FILLER_24_176
*1953 FILLER_24_179
*1954 FILLER_24_182
*1955 FILLER_24_185
*1956 FILLER_24_188
*1957 FILLER_24_197
*1958 FILLER_24_200
*1959 FILLER_24_203
*1960 FILLER_24_206
*1961 FILLER_24_209
*1962 FILLER_24_212
*1963 FILLER_24_215
*1964 FILLER_24_218
*1965 FILLER_24_236
*1966 FILLER_24_239
*1967 FILLER_24_242
*1968 FILLER_24_245
*1969 FILLER_24_248
*1970 FILLER_24_251
*1971 FILLER_24_253
*1972 FILLER_24_256
*1973 FILLER_24_259
*1974 FILLER_24_26
*1975 FILLER_24_262
*1976 FILLER_24_265
*1977 FILLER_24_268
*1978 FILLER_24_271
*1979 FILLER_24_274
*1980 FILLER_24_277
*1981 FILLER_24_280
*1982 FILLER_24_283
*1983 FILLER_24_286
*1984 FILLER_24_289
*1985 FILLER_24_292
*1986 FILLER_24_295
*1987 FILLER_24_298
*1988 FILLER_24_3
*1989 FILLER_24_301
*1990 FILLER_24_304
*1991 FILLER_24_309
*1992 FILLER_24_312
*1993 FILLER_24_315
*1994 FILLER_24_318
*1995 FILLER_24_321
*1996 FILLER_24_324
*1997 FILLER_24_327
*1998 FILLER_24_330
*1999 FILLER_24_333
*2000 FILLER_24_51
*2001 FILLER_24_54
*2002 FILLER_24_57
*2003 FILLER_24_6
*2004 FILLER_24_60
*2005 FILLER_24_63
*2006 FILLER_24_66
*2007 FILLER_24_69
*2008 FILLER_24_72
*2009 FILLER_24_81
*2010 FILLER_24_85
*2011 FILLER_24_88
*2012 FILLER_24_9
*2013 FILLER_24_91
*2014 FILLER_24_94
*2015 FILLER_24_97
*2016 FILLER_25_102
*2017 FILLER_25_113
*2018 FILLER_25_12
*2019 FILLER_25_120
*2020 FILLER_25_129
*2021 FILLER_25_132
*2022 FILLER_25_135
*2023 FILLER_25_138
*2024 FILLER_25_141
*2025 FILLER_25_144
*2026 FILLER_25_147
*2027 FILLER_25_15
*2028 FILLER_25_162
*2029 FILLER_25_165
*2030 FILLER_25_169
*2031 FILLER_25_172
*2032 FILLER_25_175
*2033 FILLER_25_178
*2034 FILLER_25_18
*2035 FILLER_25_188
*2036 FILLER_25_191
*2037 FILLER_25_194
*2038 FILLER_25_197
*2039 FILLER_25_200
*2040 FILLER_25_203
*2041 FILLER_25_206
*2042 FILLER_25_209
*2043 FILLER_25_21
*2044 FILLER_25_212
*2045 FILLER_25_215
*2046 FILLER_25_218
*2047 FILLER_25_221
*2048 FILLER_25_234
*2049 FILLER_25_237
*2050 FILLER_25_24
*2051 FILLER_25_240
*2052 FILLER_25_243
*2053 FILLER_25_246
*2054 FILLER_25_249
*2055 FILLER_25_252
*2056 FILLER_25_255
*2057 FILLER_25_258
*2058 FILLER_25_261
*2059 FILLER_25_264
*2060 FILLER_25_267
*2061 FILLER_25_270
*2062 FILLER_25_273
*2063 FILLER_25_276
*2064 FILLER_25_279
*2065 FILLER_25_281
*2066 FILLER_25_284
*2067 FILLER_25_287
*2068 FILLER_25_290
*2069 FILLER_25_293
*2070 FILLER_25_296
*2071 FILLER_25_299
*2072 FILLER_25_3
*2073 FILLER_25_314
*2074 FILLER_25_323
*2075 FILLER_25_326
*2076 FILLER_25_329
*2077 FILLER_25_332
*2078 FILLER_25_37
*2079 FILLER_25_40
*2080 FILLER_25_43
*2081 FILLER_25_46
*2082 FILLER_25_49
*2083 FILLER_25_57
*2084 FILLER_25_6
*2085 FILLER_25_60
*2086 FILLER_25_63
*2087 FILLER_25_66
*2088 FILLER_25_69
*2089 FILLER_25_72
*2090 FILLER_25_75
*2091 FILLER_25_78
*2092 FILLER_25_81
*2093 FILLER_25_84
*2094 FILLER_25_87
*2095 FILLER_25_9
*2096 FILLER_25_90
*2097 FILLER_25_93
*2098 FILLER_25_96
*2099 FILLER_25_99
*2100 FILLER_26_100
*2101 FILLER_26_110
*2102 FILLER_26_113
*2103 FILLER_26_119
*2104 FILLER_26_12
*2105 FILLER_26_122
*2106 FILLER_26_125
*2107 FILLER_26_128
*2108 FILLER_26_131
*2109 FILLER_26_134
*2110 FILLER_26_137
*2111 FILLER_26_141
*2112 FILLER_26_15
*2113 FILLER_26_151
*2114 FILLER_26_154
*2115 FILLER_26_157
*2116 FILLER_26_160
*2117 FILLER_26_163
*2118 FILLER_26_166
*2119 FILLER_26_169
*2120 FILLER_26_172
*2121 FILLER_26_175
*2122 FILLER_26_18
*2123 FILLER_26_184
*2124 FILLER_26_187
*2125 FILLER_26_205
*2126 FILLER_26_208
*2127 FILLER_26_21
*2128 FILLER_26_211
*2129 FILLER_26_215
*2130 FILLER_26_218
*2131 FILLER_26_221
*2132 FILLER_26_224
*2133 FILLER_26_227
*2134 FILLER_26_230
*2135 FILLER_26_233
*2136 FILLER_26_236
*2137 FILLER_26_24
*2138 FILLER_26_253
*2139 FILLER_26_256
*2140 FILLER_26_259
*2141 FILLER_26_262
*2142 FILLER_26_265
*2143 FILLER_26_268
*2144 FILLER_26_27
*2145 FILLER_26_271
*2146 FILLER_26_29
*2147 FILLER_26_295
*2148 FILLER_26_298
*2149 FILLER_26_3
*2150 FILLER_26_301
*2151 FILLER_26_304
*2152 FILLER_26_307
*2153 FILLER_26_309
*2154 FILLER_26_312
*2155 FILLER_26_315
*2156 FILLER_26_318
*2157 FILLER_26_32
*2158 FILLER_26_321
*2159 FILLER_26_324
*2160 FILLER_26_327
*2161 FILLER_26_330
*2162 FILLER_26_333
*2163 FILLER_26_35
*2164 FILLER_26_38
*2165 FILLER_26_41
*2166 FILLER_26_44
*2167 FILLER_26_47
*2168 FILLER_26_50
*2169 FILLER_26_53
*2170 FILLER_26_56
*2171 FILLER_26_59
*2172 FILLER_26_6
*2173 FILLER_26_62
*2174 FILLER_26_74
*2175 FILLER_26_82
*2176 FILLER_26_85
*2177 FILLER_26_88
*2178 FILLER_26_9
*2179 FILLER_26_91
*2180 FILLER_26_94
*2181 FILLER_26_97
*2182 FILLER_27_107
*2183 FILLER_27_110
*2184 FILLER_27_113
*2185 FILLER_27_116
*2186 FILLER_27_119
*2187 FILLER_27_12
*2188 FILLER_27_122
*2189 FILLER_27_125
*2190 FILLER_27_128
*2191 FILLER_27_131
*2192 FILLER_27_134
*2193 FILLER_27_137
*2194 FILLER_27_140
*2195 FILLER_27_143
*2196 FILLER_27_146
*2197 FILLER_27_149
*2198 FILLER_27_15
*2199 FILLER_27_152
*2200 FILLER_27_155
*2201 FILLER_27_158
*2202 FILLER_27_161
*2203 FILLER_27_164
*2204 FILLER_27_167
*2205 FILLER_27_169
*2206 FILLER_27_172
*2207 FILLER_27_175
*2208 FILLER_27_178
*2209 FILLER_27_18
*2210 FILLER_27_181
*2211 FILLER_27_184
*2212 FILLER_27_187
*2213 FILLER_27_190
*2214 FILLER_27_193
*2215 FILLER_27_196
*2216 FILLER_27_199
*2217 FILLER_27_202
*2218 FILLER_27_21
*2219 FILLER_27_218
*2220 FILLER_27_221
*2221 FILLER_27_225
*2222 FILLER_27_228
*2223 FILLER_27_231
*2224 FILLER_27_234
*2225 FILLER_27_237
*2226 FILLER_27_24
*2227 FILLER_27_240
*2228 FILLER_27_243
*2229 FILLER_27_246
*2230 FILLER_27_249
*2231 FILLER_27_252
*2232 FILLER_27_255
*2233 FILLER_27_258
*2234 FILLER_27_261
*2235 FILLER_27_264
*2236 FILLER_27_267
*2237 FILLER_27_27
*2238 FILLER_27_270
*2239 FILLER_27_273
*2240 FILLER_27_276
*2241 FILLER_27_279
*2242 FILLER_27_281
*2243 FILLER_27_3
*2244 FILLER_27_30
*2245 FILLER_27_310
*2246 FILLER_27_313
*2247 FILLER_27_316
*2248 FILLER_27_321
*2249 FILLER_27_324
*2250 FILLER_27_327
*2251 FILLER_27_33
*2252 FILLER_27_330
*2253 FILLER_27_333
*2254 FILLER_27_36
*2255 FILLER_27_39
*2256 FILLER_27_42
*2257 FILLER_27_45
*2258 FILLER_27_48
*2259 FILLER_27_51
*2260 FILLER_27_54
*2261 FILLER_27_57
*2262 FILLER_27_6
*2263 FILLER_27_60
*2264 FILLER_27_63
*2265 FILLER_27_66
*2266 FILLER_27_69
*2267 FILLER_27_72
*2268 FILLER_27_75
*2269 FILLER_27_78
*2270 FILLER_27_81
*2271 FILLER_27_84
*2272 FILLER_27_87
*2273 FILLER_27_9
*2274 FILLER_27_90
*2275 FILLER_27_93
*2276 FILLER_27_96
*2277 FILLER_27_99
*2278 FILLER_28_100
*2279 FILLER_28_105
*2280 FILLER_28_108
*2281 FILLER_28_111
*2282 FILLER_28_114
*2283 FILLER_28_117
*2284 FILLER_28_12
*2285 FILLER_28_120
*2286 FILLER_28_126
*2287 FILLER_28_129
*2288 FILLER_28_132
*2289 FILLER_28_135
*2290 FILLER_28_138
*2291 FILLER_28_149
*2292 FILLER_28_15
*2293 FILLER_28_152
*2294 FILLER_28_168
*2295 FILLER_28_171
*2296 FILLER_28_174
*2297 FILLER_28_177
*2298 FILLER_28_18
*2299 FILLER_28_180
*2300 FILLER_28_183
*2301 FILLER_28_186
*2302 FILLER_28_189
*2303 FILLER_28_192
*2304 FILLER_28_195
*2305 FILLER_28_197
*2306 FILLER_28_200
*2307 FILLER_28_203
*2308 FILLER_28_206
*2309 FILLER_28_209
*2310 FILLER_28_21
*2311 FILLER_28_212
*2312 FILLER_28_218
*2313 FILLER_28_221
*2314 FILLER_28_224
*2315 FILLER_28_227
*2316 FILLER_28_230
*2317 FILLER_28_233
*2318 FILLER_28_236
*2319 FILLER_28_239
*2320 FILLER_28_24
*2321 FILLER_28_242
*2322 FILLER_28_245
*2323 FILLER_28_248
*2324 FILLER_28_251
*2325 FILLER_28_253
*2326 FILLER_28_256
*2327 FILLER_28_259
*2328 FILLER_28_27
*2329 FILLER_28_282
*2330 FILLER_28_285
*2331 FILLER_28_288
*2332 FILLER_28_29
*2333 FILLER_28_291
*2334 FILLER_28_294
*2335 FILLER_28_297
*2336 FILLER_28_3
*2337 FILLER_28_300
*2338 FILLER_28_303
*2339 FILLER_28_306
*2340 FILLER_28_32
*2341 FILLER_28_332
*2342 FILLER_28_35
*2343 FILLER_28_51
*2344 FILLER_28_54
*2345 FILLER_28_57
*2346 FILLER_28_6
*2347 FILLER_28_60
*2348 FILLER_28_63
*2349 FILLER_28_66
*2350 FILLER_28_69
*2351 FILLER_28_72
*2352 FILLER_28_81
*2353 FILLER_28_85
*2354 FILLER_28_88
*2355 FILLER_28_9
*2356 FILLER_28_91
*2357 FILLER_28_94
*2358 FILLER_28_97
*2359 FILLER_29_109
*2360 FILLER_29_119
*2361 FILLER_29_128
*2362 FILLER_29_131
*2363 FILLER_29_134
*2364 FILLER_29_137
*2365 FILLER_29_140
*2366 FILLER_29_143
*2367 FILLER_29_146
*2368 FILLER_29_149
*2369 FILLER_29_152
*2370 FILLER_29_155
*2371 FILLER_29_158
*2372 FILLER_29_161
*2373 FILLER_29_164
*2374 FILLER_29_167
*2375 FILLER_29_169
*2376 FILLER_29_172
*2377 FILLER_29_175
*2378 FILLER_29_178
*2379 FILLER_29_181
*2380 FILLER_29_184
*2381 FILLER_29_187
*2382 FILLER_29_190
*2383 FILLER_29_193
*2384 FILLER_29_196
*2385 FILLER_29_199
*2386 FILLER_29_202
*2387 FILLER_29_205
*2388 FILLER_29_208
*2389 FILLER_29_211
*2390 FILLER_29_217
*2391 FILLER_29_22
*2392 FILLER_29_220
*2393 FILLER_29_223
*2394 FILLER_29_225
*2395 FILLER_29_228
*2396 FILLER_29_231
*2397 FILLER_29_237
*2398 FILLER_29_240
*2399 FILLER_29_243
*2400 FILLER_29_246
*2401 FILLER_29_249
*2402 FILLER_29_25
*2403 FILLER_29_252
*2404 FILLER_29_255
*2405 FILLER_29_258
*2406 FILLER_29_261
*2407 FILLER_29_272
*2408 FILLER_29_275
*2409 FILLER_29_278
*2410 FILLER_29_281
*2411 FILLER_29_284
*2412 FILLER_29_287
*2413 FILLER_29_290
*2414 FILLER_29_293
*2415 FILLER_29_296
*2416 FILLER_29_299
*2417 FILLER_29_3
*2418 FILLER_29_302
*2419 FILLER_29_305
*2420 FILLER_29_308
*2421 FILLER_29_31
*2422 FILLER_29_311
*2423 FILLER_29_314
*2424 FILLER_29_317
*2425 FILLER_29_326
*2426 FILLER_29_329
*2427 FILLER_29_332
*2428 FILLER_29_34
*2429 FILLER_29_54
*2430 FILLER_29_57
*2431 FILLER_29_6
*2432 FILLER_29_60
*2433 FILLER_29_63
*2434 FILLER_29_66
*2435 FILLER_29_69
*2436 FILLER_29_72
*2437 FILLER_29_75
*2438 FILLER_29_78
*2439 FILLER_29_81
*2440 FILLER_29_84
*2441 FILLER_29_87
*2442 FILLER_29_9
*2443 FILLER_29_90
*2444 FILLER_29_93
*2445 FILLER_29_96
*2446 FILLER_2_100
*2447 FILLER_2_103
*2448 FILLER_2_106
*2449 FILLER_2_109
*2450 FILLER_2_112
*2451 FILLER_2_115
*2452 FILLER_2_118
*2453 FILLER_2_12
*2454 FILLER_2_121
*2455 FILLER_2_124
*2456 FILLER_2_127
*2457 FILLER_2_130
*2458 FILLER_2_133
*2459 FILLER_2_136
*2460 FILLER_2_139
*2461 FILLER_2_141
*2462 FILLER_2_144
*2463 FILLER_2_147
*2464 FILLER_2_15
*2465 FILLER_2_150
*2466 FILLER_2_153
*2467 FILLER_2_156
*2468 FILLER_2_159
*2469 FILLER_2_162
*2470 FILLER_2_165
*2471 FILLER_2_168
*2472 FILLER_2_171
*2473 FILLER_2_174
*2474 FILLER_2_177
*2475 FILLER_2_18
*2476 FILLER_2_180
*2477 FILLER_2_183
*2478 FILLER_2_186
*2479 FILLER_2_189
*2480 FILLER_2_192
*2481 FILLER_2_195
*2482 FILLER_2_197
*2483 FILLER_2_200
*2484 FILLER_2_203
*2485 FILLER_2_206
*2486 FILLER_2_209
*2487 FILLER_2_21
*2488 FILLER_2_212
*2489 FILLER_2_215
*2490 FILLER_2_218
*2491 FILLER_2_221
*2492 FILLER_2_224
*2493 FILLER_2_227
*2494 FILLER_2_230
*2495 FILLER_2_233
*2496 FILLER_2_236
*2497 FILLER_2_239
*2498 FILLER_2_24
*2499 FILLER_2_242
*2500 FILLER_2_245
*2501 FILLER_2_248
*2502 FILLER_2_251
*2503 FILLER_2_253
*2504 FILLER_2_256
*2505 FILLER_2_259
*2506 FILLER_2_262
*2507 FILLER_2_265
*2508 FILLER_2_268
*2509 FILLER_2_27
*2510 FILLER_2_271
*2511 FILLER_2_274
*2512 FILLER_2_277
*2513 FILLER_2_280
*2514 FILLER_2_283
*2515 FILLER_2_286
*2516 FILLER_2_289
*2517 FILLER_2_29
*2518 FILLER_2_292
*2519 FILLER_2_295
*2520 FILLER_2_298
*2521 FILLER_2_3
*2522 FILLER_2_301
*2523 FILLER_2_304
*2524 FILLER_2_307
*2525 FILLER_2_309
*2526 FILLER_2_312
*2527 FILLER_2_315
*2528 FILLER_2_318
*2529 FILLER_2_32
*2530 FILLER_2_321
*2531 FILLER_2_324
*2532 FILLER_2_327
*2533 FILLER_2_330
*2534 FILLER_2_333
*2535 FILLER_2_35
*2536 FILLER_2_38
*2537 FILLER_2_41
*2538 FILLER_2_44
*2539 FILLER_2_47
*2540 FILLER_2_50
*2541 FILLER_2_53
*2542 FILLER_2_56
*2543 FILLER_2_59
*2544 FILLER_2_6
*2545 FILLER_2_62
*2546 FILLER_2_65
*2547 FILLER_2_68
*2548 FILLER_2_71
*2549 FILLER_2_74
*2550 FILLER_2_77
*2551 FILLER_2_80
*2552 FILLER_2_83
*2553 FILLER_2_85
*2554 FILLER_2_88
*2555 FILLER_2_9
*2556 FILLER_2_91
*2557 FILLER_2_94
*2558 FILLER_2_97
*2559 FILLER_30_103
*2560 FILLER_30_106
*2561 FILLER_30_109
*2562 FILLER_30_112
*2563 FILLER_30_115
*2564 FILLER_30_12
*2565 FILLER_30_120
*2566 FILLER_30_123
*2567 FILLER_30_126
*2568 FILLER_30_129
*2569 FILLER_30_132
*2570 FILLER_30_135
*2571 FILLER_30_138
*2572 FILLER_30_141
*2573 FILLER_30_144
*2574 FILLER_30_147
*2575 FILLER_30_15
*2576 FILLER_30_150
*2577 FILLER_30_153
*2578 FILLER_30_171
*2579 FILLER_30_174
*2580 FILLER_30_177
*2581 FILLER_30_18
*2582 FILLER_30_180
*2583 FILLER_30_183
*2584 FILLER_30_186
*2585 FILLER_30_197
*2586 FILLER_30_202
*2587 FILLER_30_205
*2588 FILLER_30_208
*2589 FILLER_30_21
*2590 FILLER_30_211
*2591 FILLER_30_216
*2592 FILLER_30_219
*2593 FILLER_30_222
*2594 FILLER_30_225
*2595 FILLER_30_228
*2596 FILLER_30_231
*2597 FILLER_30_234
*2598 FILLER_30_24
*2599 FILLER_30_246
*2600 FILLER_30_249
*2601 FILLER_30_253
*2602 FILLER_30_256
*2603 FILLER_30_259
*2604 FILLER_30_262
*2605 FILLER_30_265
*2606 FILLER_30_268
*2607 FILLER_30_27
*2608 FILLER_30_271
*2609 FILLER_30_29
*2610 FILLER_30_293
*2611 FILLER_30_296
*2612 FILLER_30_299
*2613 FILLER_30_3
*2614 FILLER_30_302
*2615 FILLER_30_305
*2616 FILLER_30_309
*2617 FILLER_30_312
*2618 FILLER_30_315
*2619 FILLER_30_318
*2620 FILLER_30_32
*2621 FILLER_30_321
*2622 FILLER_30_324
*2623 FILLER_30_327
*2624 FILLER_30_330
*2625 FILLER_30_333
*2626 FILLER_30_35
*2627 FILLER_30_38
*2628 FILLER_30_41
*2629 FILLER_30_49
*2630 FILLER_30_52
*2631 FILLER_30_55
*2632 FILLER_30_58
*2633 FILLER_30_6
*2634 FILLER_30_61
*2635 FILLER_30_64
*2636 FILLER_30_67
*2637 FILLER_30_70
*2638 FILLER_30_79
*2639 FILLER_30_82
*2640 FILLER_30_85
*2641 FILLER_30_88
*2642 FILLER_30_9
*2643 FILLER_30_91
*2644 FILLER_30_94
*2645 FILLER_30_97
*2646 FILLER_31_102
*2647 FILLER_31_105
*2648 FILLER_31_108
*2649 FILLER_31_111
*2650 FILLER_31_113
*2651 FILLER_31_117
*2652 FILLER_31_12
*2653 FILLER_31_120
*2654 FILLER_31_133
*2655 FILLER_31_136
*2656 FILLER_31_139
*2657 FILLER_31_142
*2658 FILLER_31_145
*2659 FILLER_31_148
*2660 FILLER_31_15
*2661 FILLER_31_151
*2662 FILLER_31_164
*2663 FILLER_31_167
*2664 FILLER_31_169
*2665 FILLER_31_172
*2666 FILLER_31_175
*2667 FILLER_31_178
*2668 FILLER_31_18
*2669 FILLER_31_184
*2670 FILLER_31_187
*2671 FILLER_31_190
*2672 FILLER_31_193
*2673 FILLER_31_21
*2674 FILLER_31_213
*2675 FILLER_31_216
*2676 FILLER_31_219
*2677 FILLER_31_222
*2678 FILLER_31_225
*2679 FILLER_31_228
*2680 FILLER_31_231
*2681 FILLER_31_24
*2682 FILLER_31_242
*2683 FILLER_31_245
*2684 FILLER_31_248
*2685 FILLER_31_251
*2686 FILLER_31_254
*2687 FILLER_31_257
*2688 FILLER_31_260
*2689 FILLER_31_263
*2690 FILLER_31_266
*2691 FILLER_31_269
*2692 FILLER_31_27
*2693 FILLER_31_275
*2694 FILLER_31_278
*2695 FILLER_31_281
*2696 FILLER_31_284
*2697 FILLER_31_287
*2698 FILLER_31_290
*2699 FILLER_31_293
*2700 FILLER_31_296
*2701 FILLER_31_299
*2702 FILLER_31_3
*2703 FILLER_31_30
*2704 FILLER_31_310
*2705 FILLER_31_313
*2706 FILLER_31_316
*2707 FILLER_31_321
*2708 FILLER_31_324
*2709 FILLER_31_327
*2710 FILLER_31_33
*2711 FILLER_31_330
*2712 FILLER_31_333
*2713 FILLER_31_36
*2714 FILLER_31_39
*2715 FILLER_31_42
*2716 FILLER_31_45
*2717 FILLER_31_48
*2718 FILLER_31_51
*2719 FILLER_31_54
*2720 FILLER_31_57
*2721 FILLER_31_6
*2722 FILLER_31_60
*2723 FILLER_31_63
*2724 FILLER_31_66
*2725 FILLER_31_69
*2726 FILLER_31_72
*2727 FILLER_31_85
*2728 FILLER_31_88
*2729 FILLER_31_9
*2730 FILLER_31_99
*2731 FILLER_32_101
*2732 FILLER_32_104
*2733 FILLER_32_107
*2734 FILLER_32_110
*2735 FILLER_32_113
*2736 FILLER_32_116
*2737 FILLER_32_119
*2738 FILLER_32_12
*2739 FILLER_32_122
*2740 FILLER_32_125
*2741 FILLER_32_128
*2742 FILLER_32_131
*2743 FILLER_32_134
*2744 FILLER_32_137
*2745 FILLER_32_141
*2746 FILLER_32_144
*2747 FILLER_32_147
*2748 FILLER_32_15
*2749 FILLER_32_150
*2750 FILLER_32_153
*2751 FILLER_32_158
*2752 FILLER_32_161
*2753 FILLER_32_164
*2754 FILLER_32_167
*2755 FILLER_32_170
*2756 FILLER_32_173
*2757 FILLER_32_176
*2758 FILLER_32_179
*2759 FILLER_32_18
*2760 FILLER_32_182
*2761 FILLER_32_185
*2762 FILLER_32_191
*2763 FILLER_32_194
*2764 FILLER_32_197
*2765 FILLER_32_200
*2766 FILLER_32_203
*2767 FILLER_32_206
*2768 FILLER_32_209
*2769 FILLER_32_21
*2770 FILLER_32_212
*2771 FILLER_32_215
*2772 FILLER_32_218
*2773 FILLER_32_221
*2774 FILLER_32_224
*2775 FILLER_32_227
*2776 FILLER_32_24
*2777 FILLER_32_249
*2778 FILLER_32_253
*2779 FILLER_32_256
*2780 FILLER_32_259
*2781 FILLER_32_262
*2782 FILLER_32_268
*2783 FILLER_32_27
*2784 FILLER_32_271
*2785 FILLER_32_29
*2786 FILLER_32_294
*2787 FILLER_32_297
*2788 FILLER_32_3
*2789 FILLER_32_300
*2790 FILLER_32_304
*2791 FILLER_32_307
*2792 FILLER_32_32
*2793 FILLER_32_332
*2794 FILLER_32_43
*2795 FILLER_32_46
*2796 FILLER_32_49
*2797 FILLER_32_52
*2798 FILLER_32_55
*2799 FILLER_32_58
*2800 FILLER_32_6
*2801 FILLER_32_61
*2802 FILLER_32_64
*2803 FILLER_32_67
*2804 FILLER_32_70
*2805 FILLER_32_73
*2806 FILLER_32_76
*2807 FILLER_32_79
*2808 FILLER_32_82
*2809 FILLER_32_85
*2810 FILLER_32_88
*2811 FILLER_32_9
*2812 FILLER_32_91
*2813 FILLER_33_100
*2814 FILLER_33_103
*2815 FILLER_33_106
*2816 FILLER_33_109
*2817 FILLER_33_113
*2818 FILLER_33_12
*2819 FILLER_33_121
*2820 FILLER_33_124
*2821 FILLER_33_127
*2822 FILLER_33_130
*2823 FILLER_33_133
*2824 FILLER_33_136
*2825 FILLER_33_139
*2826 FILLER_33_142
*2827 FILLER_33_145
*2828 FILLER_33_148
*2829 FILLER_33_15
*2830 FILLER_33_151
*2831 FILLER_33_162
*2832 FILLER_33_165
*2833 FILLER_33_169
*2834 FILLER_33_172
*2835 FILLER_33_175
*2836 FILLER_33_178
*2837 FILLER_33_18
*2838 FILLER_33_181
*2839 FILLER_33_184
*2840 FILLER_33_196
*2841 FILLER_33_199
*2842 FILLER_33_202
*2843 FILLER_33_205
*2844 FILLER_33_208
*2845 FILLER_33_21
*2846 FILLER_33_211
*2847 FILLER_33_214
*2848 FILLER_33_217
*2849 FILLER_33_220
*2850 FILLER_33_223
*2851 FILLER_33_225
*2852 FILLER_33_228
*2853 FILLER_33_231
*2854 FILLER_33_234
*2855 FILLER_33_237
*2856 FILLER_33_24
*2857 FILLER_33_240
*2858 FILLER_33_243
*2859 FILLER_33_246
*2860 FILLER_33_249
*2861 FILLER_33_252
*2862 FILLER_33_255
*2863 FILLER_33_258
*2864 FILLER_33_261
*2865 FILLER_33_264
*2866 FILLER_33_267
*2867 FILLER_33_27
*2868 FILLER_33_270
*2869 FILLER_33_281
*2870 FILLER_33_284
*2871 FILLER_33_287
*2872 FILLER_33_290
*2873 FILLER_33_293
*2874 FILLER_33_296
*2875 FILLER_33_299
*2876 FILLER_33_3
*2877 FILLER_33_302
*2878 FILLER_33_305
*2879 FILLER_33_308
*2880 FILLER_33_311
*2881 FILLER_33_314
*2882 FILLER_33_317
*2883 FILLER_33_320
*2884 FILLER_33_323
*2885 FILLER_33_326
*2886 FILLER_33_329
*2887 FILLER_33_332
*2888 FILLER_33_37
*2889 FILLER_33_40
*2890 FILLER_33_54
*2891 FILLER_33_57
*2892 FILLER_33_6
*2893 FILLER_33_60
*2894 FILLER_33_63
*2895 FILLER_33_66
*2896 FILLER_33_69
*2897 FILLER_33_72
*2898 FILLER_33_75
*2899 FILLER_33_85
*2900 FILLER_33_88
*2901 FILLER_33_9
*2902 FILLER_33_91
*2903 FILLER_33_94
*2904 FILLER_33_97
*2905 FILLER_34_100
*2906 FILLER_34_103
*2907 FILLER_34_106
*2908 FILLER_34_109
*2909 FILLER_34_12
*2910 FILLER_34_123
*2911 FILLER_34_126
*2912 FILLER_34_129
*2913 FILLER_34_132
*2914 FILLER_34_135
*2915 FILLER_34_138
*2916 FILLER_34_141
*2917 FILLER_34_144
*2918 FILLER_34_147
*2919 FILLER_34_15
*2920 FILLER_34_150
*2921 FILLER_34_153
*2922 FILLER_34_156
*2923 FILLER_34_159
*2924 FILLER_34_162
*2925 FILLER_34_165
*2926 FILLER_34_168
*2927 FILLER_34_171
*2928 FILLER_34_174
*2929 FILLER_34_177
*2930 FILLER_34_18
*2931 FILLER_34_180
*2932 FILLER_34_183
*2933 FILLER_34_186
*2934 FILLER_34_189
*2935 FILLER_34_192
*2936 FILLER_34_195
*2937 FILLER_34_197
*2938 FILLER_34_200
*2939 FILLER_34_203
*2940 FILLER_34_206
*2941 FILLER_34_209
*2942 FILLER_34_21
*2943 FILLER_34_212
*2944 FILLER_34_215
*2945 FILLER_34_218
*2946 FILLER_34_221
*2947 FILLER_34_224
*2948 FILLER_34_227
*2949 FILLER_34_230
*2950 FILLER_34_233
*2951 FILLER_34_236
*2952 FILLER_34_239
*2953 FILLER_34_24
*2954 FILLER_34_242
*2955 FILLER_34_245
*2956 FILLER_34_248
*2957 FILLER_34_251
*2958 FILLER_34_253
*2959 FILLER_34_256
*2960 FILLER_34_259
*2961 FILLER_34_262
*2962 FILLER_34_265
*2963 FILLER_34_268
*2964 FILLER_34_27
*2965 FILLER_34_271
*2966 FILLER_34_29
*2967 FILLER_34_299
*2968 FILLER_34_3
*2969 FILLER_34_302
*2970 FILLER_34_305
*2971 FILLER_34_309
*2972 FILLER_34_312
*2973 FILLER_34_315
*2974 FILLER_34_318
*2975 FILLER_34_32
*2976 FILLER_34_321
*2977 FILLER_34_324
*2978 FILLER_34_327
*2979 FILLER_34_330
*2980 FILLER_34_333
*2981 FILLER_34_35
*2982 FILLER_34_38
*2983 FILLER_34_41
*2984 FILLER_34_44
*2985 FILLER_34_47
*2986 FILLER_34_50
*2987 FILLER_34_53
*2988 FILLER_34_56
*2989 FILLER_34_59
*2990 FILLER_34_6
*2991 FILLER_34_62
*2992 FILLER_34_65
*2993 FILLER_34_68
*2994 FILLER_34_71
*2995 FILLER_34_74
*2996 FILLER_34_77
*2997 FILLER_34_80
*2998 FILLER_34_83
*2999 FILLER_34_85
*3000 FILLER_34_88
*3001 FILLER_34_9
*3002 FILLER_34_91
*3003 FILLER_34_94
*3004 FILLER_34_97
*3005 FILLER_35_102
*3006 FILLER_35_105
*3007 FILLER_35_108
*3008 FILLER_35_111
*3009 FILLER_35_113
*3010 FILLER_35_116
*3011 FILLER_35_119
*3012 FILLER_35_12
*3013 FILLER_35_122
*3014 FILLER_35_125
*3015 FILLER_35_128
*3016 FILLER_35_131
*3017 FILLER_35_134
*3018 FILLER_35_137
*3019 FILLER_35_140
*3020 FILLER_35_143
*3021 FILLER_35_146
*3022 FILLER_35_149
*3023 FILLER_35_15
*3024 FILLER_35_152
*3025 FILLER_35_155
*3026 FILLER_35_166
*3027 FILLER_35_169
*3028 FILLER_35_172
*3029 FILLER_35_175
*3030 FILLER_35_178
*3031 FILLER_35_18
*3032 FILLER_35_181
*3033 FILLER_35_184
*3034 FILLER_35_187
*3035 FILLER_35_190
*3036 FILLER_35_193
*3037 FILLER_35_196
*3038 FILLER_35_199
*3039 FILLER_35_202
*3040 FILLER_35_205
*3041 FILLER_35_21
*3042 FILLER_35_219
*3043 FILLER_35_222
*3044 FILLER_35_225
*3045 FILLER_35_228
*3046 FILLER_35_231
*3047 FILLER_35_234
*3048 FILLER_35_237
*3049 FILLER_35_24
*3050 FILLER_35_240
*3051 FILLER_35_243
*3052 FILLER_35_252
*3053 FILLER_35_255
*3054 FILLER_35_258
*3055 FILLER_35_261
*3056 FILLER_35_264
*3057 FILLER_35_267
*3058 FILLER_35_27
*3059 FILLER_35_270
*3060 FILLER_35_273
*3061 FILLER_35_276
*3062 FILLER_35_284
*3063 FILLER_35_287
*3064 FILLER_35_297
*3065 FILLER_35_3
*3066 FILLER_35_30
*3067 FILLER_35_300
*3068 FILLER_35_303
*3069 FILLER_35_306
*3070 FILLER_35_309
*3071 FILLER_35_312
*3072 FILLER_35_315
*3073 FILLER_35_318
*3074 FILLER_35_321
*3075 FILLER_35_324
*3076 FILLER_35_327
*3077 FILLER_35_33
*3078 FILLER_35_330
*3079 FILLER_35_333
*3080 FILLER_35_36
*3081 FILLER_35_39
*3082 FILLER_35_42
*3083 FILLER_35_45
*3084 FILLER_35_48
*3085 FILLER_35_51
*3086 FILLER_35_54
*3087 FILLER_35_57
*3088 FILLER_35_6
*3089 FILLER_35_60
*3090 FILLER_35_63
*3091 FILLER_35_66
*3092 FILLER_35_69
*3093 FILLER_35_78
*3094 FILLER_35_81
*3095 FILLER_35_84
*3096 FILLER_35_87
*3097 FILLER_35_9
*3098 FILLER_35_90
*3099 FILLER_35_93
*3100 FILLER_35_96
*3101 FILLER_35_99
*3102 FILLER_36_100
*3103 FILLER_36_103
*3104 FILLER_36_106
*3105 FILLER_36_116
*3106 FILLER_36_119
*3107 FILLER_36_12
*3108 FILLER_36_122
*3109 FILLER_36_125
*3110 FILLER_36_128
*3111 FILLER_36_131
*3112 FILLER_36_134
*3113 FILLER_36_137
*3114 FILLER_36_141
*3115 FILLER_36_15
*3116 FILLER_36_152
*3117 FILLER_36_155
*3118 FILLER_36_164
*3119 FILLER_36_167
*3120 FILLER_36_170
*3121 FILLER_36_173
*3122 FILLER_36_176
*3123 FILLER_36_179
*3124 FILLER_36_18
*3125 FILLER_36_182
*3126 FILLER_36_185
*3127 FILLER_36_188
*3128 FILLER_36_202
*3129 FILLER_36_205
*3130 FILLER_36_21
*3131 FILLER_36_217
*3132 FILLER_36_220
*3133 FILLER_36_223
*3134 FILLER_36_226
*3135 FILLER_36_236
*3136 FILLER_36_239
*3137 FILLER_36_24
*3138 FILLER_36_242
*3139 FILLER_36_245
*3140 FILLER_36_248
*3141 FILLER_36_251
*3142 FILLER_36_253
*3143 FILLER_36_256
*3144 FILLER_36_259
*3145 FILLER_36_262
*3146 FILLER_36_265
*3147 FILLER_36_268
*3148 FILLER_36_27
*3149 FILLER_36_29
*3150 FILLER_36_290
*3151 FILLER_36_293
*3152 FILLER_36_296
*3153 FILLER_36_299
*3154 FILLER_36_3
*3155 FILLER_36_32
*3156 FILLER_36_332
*3157 FILLER_36_35
*3158 FILLER_36_38
*3159 FILLER_36_41
*3160 FILLER_36_44
*3161 FILLER_36_47
*3162 FILLER_36_50
*3163 FILLER_36_53
*3164 FILLER_36_56
*3165 FILLER_36_59
*3166 FILLER_36_6
*3167 FILLER_36_62
*3168 FILLER_36_65
*3169 FILLER_36_68
*3170 FILLER_36_71
*3171 FILLER_36_74
*3172 FILLER_36_77
*3173 FILLER_36_80
*3174 FILLER_36_83
*3175 FILLER_36_85
*3176 FILLER_36_88
*3177 FILLER_36_9
*3178 FILLER_36_91
*3179 FILLER_36_94
*3180 FILLER_36_97
*3181 FILLER_37_102
*3182 FILLER_37_105
*3183 FILLER_37_108
*3184 FILLER_37_111
*3185 FILLER_37_113
*3186 FILLER_37_116
*3187 FILLER_37_119
*3188 FILLER_37_12
*3189 FILLER_37_122
*3190 FILLER_37_125
*3191 FILLER_37_128
*3192 FILLER_37_131
*3193 FILLER_37_134
*3194 FILLER_37_137
*3195 FILLER_37_140
*3196 FILLER_37_15
*3197 FILLER_37_152
*3198 FILLER_37_155
*3199 FILLER_37_158
*3200 FILLER_37_161
*3201 FILLER_37_164
*3202 FILLER_37_167
*3203 FILLER_37_169
*3204 FILLER_37_172
*3205 FILLER_37_175
*3206 FILLER_37_178
*3207 FILLER_37_18
*3208 FILLER_37_181
*3209 FILLER_37_184
*3210 FILLER_37_187
*3211 FILLER_37_190
*3212 FILLER_37_202
*3213 FILLER_37_205
*3214 FILLER_37_208
*3215 FILLER_37_21
*3216 FILLER_37_211
*3217 FILLER_37_214
*3218 FILLER_37_217
*3219 FILLER_37_220
*3220 FILLER_37_223
*3221 FILLER_37_225
*3222 FILLER_37_228
*3223 FILLER_37_231
*3224 FILLER_37_24
*3225 FILLER_37_259
*3226 FILLER_37_262
*3227 FILLER_37_265
*3228 FILLER_37_268
*3229 FILLER_37_27
*3230 FILLER_37_271
*3231 FILLER_37_274
*3232 FILLER_37_277
*3233 FILLER_37_285
*3234 FILLER_37_294
*3235 FILLER_37_297
*3236 FILLER_37_3
*3237 FILLER_37_30
*3238 FILLER_37_300
*3239 FILLER_37_303
*3240 FILLER_37_306
*3241 FILLER_37_309
*3242 FILLER_37_312
*3243 FILLER_37_325
*3244 FILLER_37_328
*3245 FILLER_37_33
*3246 FILLER_37_331
*3247 FILLER_37_334
*3248 FILLER_37_36
*3249 FILLER_37_39
*3250 FILLER_37_42
*3251 FILLER_37_45
*3252 FILLER_37_48
*3253 FILLER_37_51
*3254 FILLER_37_54
*3255 FILLER_37_57
*3256 FILLER_37_6
*3257 FILLER_37_60
*3258 FILLER_37_63
*3259 FILLER_37_66
*3260 FILLER_37_69
*3261 FILLER_37_72
*3262 FILLER_37_75
*3263 FILLER_37_78
*3264 FILLER_37_81
*3265 FILLER_37_84
*3266 FILLER_37_87
*3267 FILLER_37_9
*3268 FILLER_37_90
*3269 FILLER_37_93
*3270 FILLER_37_96
*3271 FILLER_37_99
*3272 FILLER_38_100
*3273 FILLER_38_106
*3274 FILLER_38_113
*3275 FILLER_38_118
*3276 FILLER_38_12
*3277 FILLER_38_124
*3278 FILLER_38_130
*3279 FILLER_38_136
*3280 FILLER_38_141
*3281 FILLER_38_144
*3282 FILLER_38_148
*3283 FILLER_38_15
*3284 FILLER_38_154
*3285 FILLER_38_160
*3286 FILLER_38_166
*3287 FILLER_38_172
*3288 FILLER_38_178
*3289 FILLER_38_18
*3290 FILLER_38_184
*3291 FILLER_38_190
*3292 FILLER_38_197
*3293 FILLER_38_202
*3294 FILLER_38_205
*3295 FILLER_38_208
*3296 FILLER_38_21
*3297 FILLER_38_211
*3298 FILLER_38_214
*3299 FILLER_38_217
*3300 FILLER_38_220
*3301 FILLER_38_223
*3302 FILLER_38_225
*3303 FILLER_38_228
*3304 FILLER_38_231
*3305 FILLER_38_234
*3306 FILLER_38_24
*3307 FILLER_38_244
*3308 FILLER_38_247
*3309 FILLER_38_250
*3310 FILLER_38_256
*3311 FILLER_38_262
*3312 FILLER_38_268
*3313 FILLER_38_27
*3314 FILLER_38_274
*3315 FILLER_38_281
*3316 FILLER_38_286
*3317 FILLER_38_29
*3318 FILLER_38_292
*3319 FILLER_38_298
*3320 FILLER_38_3
*3321 FILLER_38_301
*3322 FILLER_38_304
*3323 FILLER_38_307
*3324 FILLER_38_309
*3325 FILLER_38_312
*3326 FILLER_38_315
*3327 FILLER_38_318
*3328 FILLER_38_32
*3329 FILLER_38_321
*3330 FILLER_38_324
*3331 FILLER_38_327
*3332 FILLER_38_330
*3333 FILLER_38_333
*3334 FILLER_38_35
*3335 FILLER_38_38
*3336 FILLER_38_41
*3337 FILLER_38_44
*3338 FILLER_38_47
*3339 FILLER_38_50
*3340 FILLER_38_53
*3341 FILLER_38_57
*3342 FILLER_38_6
*3343 FILLER_38_60
*3344 FILLER_38_64
*3345 FILLER_38_70
*3346 FILLER_38_76
*3347 FILLER_38_82
*3348 FILLER_38_88
*3349 FILLER_38_9
*3350 FILLER_38_94
*3351 FILLER_3_102
*3352 FILLER_3_105
*3353 FILLER_3_108
*3354 FILLER_3_111
*3355 FILLER_3_113
*3356 FILLER_3_116
*3357 FILLER_3_119
*3358 FILLER_3_12
*3359 FILLER_3_122
*3360 FILLER_3_125
*3361 FILLER_3_128
*3362 FILLER_3_131
*3363 FILLER_3_134
*3364 FILLER_3_137
*3365 FILLER_3_140
*3366 FILLER_3_143
*3367 FILLER_3_146
*3368 FILLER_3_149
*3369 FILLER_3_15
*3370 FILLER_3_152
*3371 FILLER_3_155
*3372 FILLER_3_158
*3373 FILLER_3_161
*3374 FILLER_3_164
*3375 FILLER_3_167
*3376 FILLER_3_169
*3377 FILLER_3_172
*3378 FILLER_3_175
*3379 FILLER_3_178
*3380 FILLER_3_18
*3381 FILLER_3_181
*3382 FILLER_3_184
*3383 FILLER_3_187
*3384 FILLER_3_190
*3385 FILLER_3_193
*3386 FILLER_3_196
*3387 FILLER_3_199
*3388 FILLER_3_202
*3389 FILLER_3_205
*3390 FILLER_3_208
*3391 FILLER_3_21
*3392 FILLER_3_211
*3393 FILLER_3_214
*3394 FILLER_3_217
*3395 FILLER_3_220
*3396 FILLER_3_223
*3397 FILLER_3_225
*3398 FILLER_3_228
*3399 FILLER_3_231
*3400 FILLER_3_234
*3401 FILLER_3_237
*3402 FILLER_3_24
*3403 FILLER_3_240
*3404 FILLER_3_243
*3405 FILLER_3_246
*3406 FILLER_3_249
*3407 FILLER_3_252
*3408 FILLER_3_255
*3409 FILLER_3_258
*3410 FILLER_3_261
*3411 FILLER_3_264
*3412 FILLER_3_267
*3413 FILLER_3_27
*3414 FILLER_3_270
*3415 FILLER_3_273
*3416 FILLER_3_276
*3417 FILLER_3_279
*3418 FILLER_3_281
*3419 FILLER_3_284
*3420 FILLER_3_287
*3421 FILLER_3_290
*3422 FILLER_3_293
*3423 FILLER_3_296
*3424 FILLER_3_299
*3425 FILLER_3_3
*3426 FILLER_3_30
*3427 FILLER_3_302
*3428 FILLER_3_305
*3429 FILLER_3_308
*3430 FILLER_3_311
*3431 FILLER_3_314
*3432 FILLER_3_317
*3433 FILLER_3_320
*3434 FILLER_3_323
*3435 FILLER_3_326
*3436 FILLER_3_329
*3437 FILLER_3_33
*3438 FILLER_3_332
*3439 FILLER_3_36
*3440 FILLER_3_39
*3441 FILLER_3_42
*3442 FILLER_3_45
*3443 FILLER_3_48
*3444 FILLER_3_51
*3445 FILLER_3_54
*3446 FILLER_3_57
*3447 FILLER_3_6
*3448 FILLER_3_60
*3449 FILLER_3_63
*3450 FILLER_3_66
*3451 FILLER_3_69
*3452 FILLER_3_72
*3453 FILLER_3_75
*3454 FILLER_3_78
*3455 FILLER_3_81
*3456 FILLER_3_84
*3457 FILLER_3_87
*3458 FILLER_3_9
*3459 FILLER_3_90
*3460 FILLER_3_93
*3461 FILLER_3_96
*3462 FILLER_3_99
*3463 FILLER_4_100
*3464 FILLER_4_103
*3465 FILLER_4_106
*3466 FILLER_4_109
*3467 FILLER_4_112
*3468 FILLER_4_115
*3469 FILLER_4_118
*3470 FILLER_4_12
*3471 FILLER_4_121
*3472 FILLER_4_124
*3473 FILLER_4_127
*3474 FILLER_4_130
*3475 FILLER_4_133
*3476 FILLER_4_136
*3477 FILLER_4_139
*3478 FILLER_4_141
*3479 FILLER_4_144
*3480 FILLER_4_147
*3481 FILLER_4_15
*3482 FILLER_4_150
*3483 FILLER_4_153
*3484 FILLER_4_156
*3485 FILLER_4_159
*3486 FILLER_4_162
*3487 FILLER_4_165
*3488 FILLER_4_168
*3489 FILLER_4_171
*3490 FILLER_4_174
*3491 FILLER_4_177
*3492 FILLER_4_18
*3493 FILLER_4_180
*3494 FILLER_4_183
*3495 FILLER_4_186
*3496 FILLER_4_189
*3497 FILLER_4_192
*3498 FILLER_4_195
*3499 FILLER_4_197
*3500 FILLER_4_200
*3501 FILLER_4_203
*3502 FILLER_4_206
*3503 FILLER_4_209
*3504 FILLER_4_21
*3505 FILLER_4_212
*3506 FILLER_4_215
*3507 FILLER_4_218
*3508 FILLER_4_221
*3509 FILLER_4_224
*3510 FILLER_4_227
*3511 FILLER_4_230
*3512 FILLER_4_233
*3513 FILLER_4_236
*3514 FILLER_4_239
*3515 FILLER_4_24
*3516 FILLER_4_242
*3517 FILLER_4_245
*3518 FILLER_4_248
*3519 FILLER_4_251
*3520 FILLER_4_253
*3521 FILLER_4_256
*3522 FILLER_4_259
*3523 FILLER_4_262
*3524 FILLER_4_265
*3525 FILLER_4_268
*3526 FILLER_4_27
*3527 FILLER_4_271
*3528 FILLER_4_274
*3529 FILLER_4_277
*3530 FILLER_4_280
*3531 FILLER_4_283
*3532 FILLER_4_286
*3533 FILLER_4_289
*3534 FILLER_4_29
*3535 FILLER_4_292
*3536 FILLER_4_295
*3537 FILLER_4_298
*3538 FILLER_4_3
*3539 FILLER_4_301
*3540 FILLER_4_304
*3541 FILLER_4_307
*3542 FILLER_4_309
*3543 FILLER_4_312
*3544 FILLER_4_315
*3545 FILLER_4_318
*3546 FILLER_4_32
*3547 FILLER_4_321
*3548 FILLER_4_324
*3549 FILLER_4_327
*3550 FILLER_4_330
*3551 FILLER_4_333
*3552 FILLER_4_35
*3553 FILLER_4_38
*3554 FILLER_4_41
*3555 FILLER_4_44
*3556 FILLER_4_47
*3557 FILLER_4_50
*3558 FILLER_4_53
*3559 FILLER_4_56
*3560 FILLER_4_59
*3561 FILLER_4_6
*3562 FILLER_4_62
*3563 FILLER_4_65
*3564 FILLER_4_68
*3565 FILLER_4_71
*3566 FILLER_4_74
*3567 FILLER_4_77
*3568 FILLER_4_80
*3569 FILLER_4_83
*3570 FILLER_4_85
*3571 FILLER_4_88
*3572 FILLER_4_9
*3573 FILLER_4_91
*3574 FILLER_4_94
*3575 FILLER_4_97
*3576 FILLER_5_102
*3577 FILLER_5_105
*3578 FILLER_5_108
*3579 FILLER_5_111
*3580 FILLER_5_113
*3581 FILLER_5_116
*3582 FILLER_5_119
*3583 FILLER_5_12
*3584 FILLER_5_122
*3585 FILLER_5_125
*3586 FILLER_5_128
*3587 FILLER_5_131
*3588 FILLER_5_134
*3589 FILLER_5_137
*3590 FILLER_5_140
*3591 FILLER_5_143
*3592 FILLER_5_146
*3593 FILLER_5_149
*3594 FILLER_5_15
*3595 FILLER_5_152
*3596 FILLER_5_155
*3597 FILLER_5_158
*3598 FILLER_5_161
*3599 FILLER_5_164
*3600 FILLER_5_167
*3601 FILLER_5_169
*3602 FILLER_5_172
*3603 FILLER_5_175
*3604 FILLER_5_178
*3605 FILLER_5_18
*3606 FILLER_5_181
*3607 FILLER_5_184
*3608 FILLER_5_187
*3609 FILLER_5_190
*3610 FILLER_5_193
*3611 FILLER_5_196
*3612 FILLER_5_199
*3613 FILLER_5_202
*3614 FILLER_5_205
*3615 FILLER_5_208
*3616 FILLER_5_21
*3617 FILLER_5_211
*3618 FILLER_5_214
*3619 FILLER_5_217
*3620 FILLER_5_220
*3621 FILLER_5_223
*3622 FILLER_5_225
*3623 FILLER_5_228
*3624 FILLER_5_231
*3625 FILLER_5_234
*3626 FILLER_5_237
*3627 FILLER_5_24
*3628 FILLER_5_240
*3629 FILLER_5_243
*3630 FILLER_5_246
*3631 FILLER_5_249
*3632 FILLER_5_252
*3633 FILLER_5_255
*3634 FILLER_5_258
*3635 FILLER_5_261
*3636 FILLER_5_264
*3637 FILLER_5_267
*3638 FILLER_5_27
*3639 FILLER_5_270
*3640 FILLER_5_273
*3641 FILLER_5_276
*3642 FILLER_5_279
*3643 FILLER_5_281
*3644 FILLER_5_284
*3645 FILLER_5_287
*3646 FILLER_5_290
*3647 FILLER_5_293
*3648 FILLER_5_296
*3649 FILLER_5_299
*3650 FILLER_5_3
*3651 FILLER_5_30
*3652 FILLER_5_302
*3653 FILLER_5_305
*3654 FILLER_5_308
*3655 FILLER_5_311
*3656 FILLER_5_314
*3657 FILLER_5_317
*3658 FILLER_5_320
*3659 FILLER_5_323
*3660 FILLER_5_326
*3661 FILLER_5_329
*3662 FILLER_5_33
*3663 FILLER_5_332
*3664 FILLER_5_36
*3665 FILLER_5_39
*3666 FILLER_5_42
*3667 FILLER_5_45
*3668 FILLER_5_48
*3669 FILLER_5_51
*3670 FILLER_5_54
*3671 FILLER_5_57
*3672 FILLER_5_6
*3673 FILLER_5_60
*3674 FILLER_5_63
*3675 FILLER_5_66
*3676 FILLER_5_69
*3677 FILLER_5_72
*3678 FILLER_5_75
*3679 FILLER_5_78
*3680 FILLER_5_81
*3681 FILLER_5_84
*3682 FILLER_5_87
*3683 FILLER_5_9
*3684 FILLER_5_90
*3685 FILLER_5_93
*3686 FILLER_5_96
*3687 FILLER_5_99
*3688 FILLER_6_100
*3689 FILLER_6_103
*3690 FILLER_6_106
*3691 FILLER_6_109
*3692 FILLER_6_112
*3693 FILLER_6_115
*3694 FILLER_6_118
*3695 FILLER_6_12
*3696 FILLER_6_121
*3697 FILLER_6_124
*3698 FILLER_6_127
*3699 FILLER_6_130
*3700 FILLER_6_133
*3701 FILLER_6_136
*3702 FILLER_6_139
*3703 FILLER_6_141
*3704 FILLER_6_144
*3705 FILLER_6_147
*3706 FILLER_6_15
*3707 FILLER_6_150
*3708 FILLER_6_153
*3709 FILLER_6_156
*3710 FILLER_6_159
*3711 FILLER_6_162
*3712 FILLER_6_165
*3713 FILLER_6_168
*3714 FILLER_6_171
*3715 FILLER_6_174
*3716 FILLER_6_177
*3717 FILLER_6_18
*3718 FILLER_6_180
*3719 FILLER_6_183
*3720 FILLER_6_186
*3721 FILLER_6_189
*3722 FILLER_6_192
*3723 FILLER_6_195
*3724 FILLER_6_197
*3725 FILLER_6_200
*3726 FILLER_6_203
*3727 FILLER_6_206
*3728 FILLER_6_209
*3729 FILLER_6_21
*3730 FILLER_6_212
*3731 FILLER_6_215
*3732 FILLER_6_218
*3733 FILLER_6_221
*3734 FILLER_6_224
*3735 FILLER_6_227
*3736 FILLER_6_230
*3737 FILLER_6_233
*3738 FILLER_6_236
*3739 FILLER_6_239
*3740 FILLER_6_24
*3741 FILLER_6_242
*3742 FILLER_6_245
*3743 FILLER_6_248
*3744 FILLER_6_251
*3745 FILLER_6_253
*3746 FILLER_6_256
*3747 FILLER_6_259
*3748 FILLER_6_262
*3749 FILLER_6_265
*3750 FILLER_6_268
*3751 FILLER_6_27
*3752 FILLER_6_271
*3753 FILLER_6_274
*3754 FILLER_6_277
*3755 FILLER_6_280
*3756 FILLER_6_283
*3757 FILLER_6_286
*3758 FILLER_6_289
*3759 FILLER_6_29
*3760 FILLER_6_292
*3761 FILLER_6_295
*3762 FILLER_6_298
*3763 FILLER_6_3
*3764 FILLER_6_301
*3765 FILLER_6_304
*3766 FILLER_6_307
*3767 FILLER_6_309
*3768 FILLER_6_312
*3769 FILLER_6_315
*3770 FILLER_6_318
*3771 FILLER_6_32
*3772 FILLER_6_321
*3773 FILLER_6_324
*3774 FILLER_6_327
*3775 FILLER_6_330
*3776 FILLER_6_333
*3777 FILLER_6_35
*3778 FILLER_6_38
*3779 FILLER_6_41
*3780 FILLER_6_44
*3781 FILLER_6_47
*3782 FILLER_6_50
*3783 FILLER_6_53
*3784 FILLER_6_56
*3785 FILLER_6_59
*3786 FILLER_6_6
*3787 FILLER_6_62
*3788 FILLER_6_65
*3789 FILLER_6_68
*3790 FILLER_6_71
*3791 FILLER_6_74
*3792 FILLER_6_77
*3793 FILLER_6_80
*3794 FILLER_6_83
*3795 FILLER_6_85
*3796 FILLER_6_88
*3797 FILLER_6_9
*3798 FILLER_6_91
*3799 FILLER_6_94
*3800 FILLER_6_97
*3801 FILLER_7_102
*3802 FILLER_7_105
*3803 FILLER_7_108
*3804 FILLER_7_111
*3805 FILLER_7_113
*3806 FILLER_7_116
*3807 FILLER_7_119
*3808 FILLER_7_12
*3809 FILLER_7_122
*3810 FILLER_7_125
*3811 FILLER_7_128
*3812 FILLER_7_131
*3813 FILLER_7_134
*3814 FILLER_7_137
*3815 FILLER_7_140
*3816 FILLER_7_143
*3817 FILLER_7_146
*3818 FILLER_7_149
*3819 FILLER_7_15
*3820 FILLER_7_152
*3821 FILLER_7_155
*3822 FILLER_7_158
*3823 FILLER_7_161
*3824 FILLER_7_164
*3825 FILLER_7_167
*3826 FILLER_7_169
*3827 FILLER_7_172
*3828 FILLER_7_175
*3829 FILLER_7_178
*3830 FILLER_7_18
*3831 FILLER_7_181
*3832 FILLER_7_184
*3833 FILLER_7_187
*3834 FILLER_7_190
*3835 FILLER_7_193
*3836 FILLER_7_196
*3837 FILLER_7_199
*3838 FILLER_7_202
*3839 FILLER_7_205
*3840 FILLER_7_208
*3841 FILLER_7_21
*3842 FILLER_7_211
*3843 FILLER_7_214
*3844 FILLER_7_217
*3845 FILLER_7_220
*3846 FILLER_7_223
*3847 FILLER_7_225
*3848 FILLER_7_228
*3849 FILLER_7_231
*3850 FILLER_7_234
*3851 FILLER_7_237
*3852 FILLER_7_24
*3853 FILLER_7_240
*3854 FILLER_7_243
*3855 FILLER_7_246
*3856 FILLER_7_249
*3857 FILLER_7_252
*3858 FILLER_7_255
*3859 FILLER_7_258
*3860 FILLER_7_261
*3861 FILLER_7_264
*3862 FILLER_7_267
*3863 FILLER_7_27
*3864 FILLER_7_270
*3865 FILLER_7_273
*3866 FILLER_7_276
*3867 FILLER_7_279
*3868 FILLER_7_281
*3869 FILLER_7_284
*3870 FILLER_7_287
*3871 FILLER_7_290
*3872 FILLER_7_293
*3873 FILLER_7_296
*3874 FILLER_7_299
*3875 FILLER_7_3
*3876 FILLER_7_30
*3877 FILLER_7_302
*3878 FILLER_7_305
*3879 FILLER_7_308
*3880 FILLER_7_311
*3881 FILLER_7_314
*3882 FILLER_7_317
*3883 FILLER_7_320
*3884 FILLER_7_323
*3885 FILLER_7_326
*3886 FILLER_7_329
*3887 FILLER_7_33
*3888 FILLER_7_332
*3889 FILLER_7_36
*3890 FILLER_7_39
*3891 FILLER_7_42
*3892 FILLER_7_45
*3893 FILLER_7_48
*3894 FILLER_7_51
*3895 FILLER_7_54
*3896 FILLER_7_57
*3897 FILLER_7_6
*3898 FILLER_7_60
*3899 FILLER_7_63
*3900 FILLER_7_66
*3901 FILLER_7_69
*3902 FILLER_7_72
*3903 FILLER_7_75
*3904 FILLER_7_78
*3905 FILLER_7_81
*3906 FILLER_7_84
*3907 FILLER_7_87
*3908 FILLER_7_9
*3909 FILLER_7_90
*3910 FILLER_7_93
*3911 FILLER_7_96
*3912 FILLER_7_99
*3913 FILLER_8_100
*3914 FILLER_8_103
*3915 FILLER_8_106
*3916 FILLER_8_109
*3917 FILLER_8_112
*3918 FILLER_8_115
*3919 FILLER_8_118
*3920 FILLER_8_12
*3921 FILLER_8_121
*3922 FILLER_8_124
*3923 FILLER_8_127
*3924 FILLER_8_130
*3925 FILLER_8_133
*3926 FILLER_8_136
*3927 FILLER_8_139
*3928 FILLER_8_141
*3929 FILLER_8_144
*3930 FILLER_8_147
*3931 FILLER_8_15
*3932 FILLER_8_150
*3933 FILLER_8_153
*3934 FILLER_8_156
*3935 FILLER_8_159
*3936 FILLER_8_162
*3937 FILLER_8_165
*3938 FILLER_8_168
*3939 FILLER_8_171
*3940 FILLER_8_174
*3941 FILLER_8_177
*3942 FILLER_8_18
*3943 FILLER_8_180
*3944 FILLER_8_183
*3945 FILLER_8_186
*3946 FILLER_8_189
*3947 FILLER_8_192
*3948 FILLER_8_195
*3949 FILLER_8_197
*3950 FILLER_8_200
*3951 FILLER_8_203
*3952 FILLER_8_206
*3953 FILLER_8_209
*3954 FILLER_8_21
*3955 FILLER_8_212
*3956 FILLER_8_215
*3957 FILLER_8_218
*3958 FILLER_8_221
*3959 FILLER_8_224
*3960 FILLER_8_227
*3961 FILLER_8_230
*3962 FILLER_8_233
*3963 FILLER_8_236
*3964 FILLER_8_239
*3965 FILLER_8_24
*3966 FILLER_8_242
*3967 FILLER_8_245
*3968 FILLER_8_248
*3969 FILLER_8_251
*3970 FILLER_8_253
*3971 FILLER_8_256
*3972 FILLER_8_259
*3973 FILLER_8_262
*3974 FILLER_8_265
*3975 FILLER_8_268
*3976 FILLER_8_27
*3977 FILLER_8_271
*3978 FILLER_8_274
*3979 FILLER_8_277
*3980 FILLER_8_280
*3981 FILLER_8_283
*3982 FILLER_8_286
*3983 FILLER_8_289
*3984 FILLER_8_29
*3985 FILLER_8_292
*3986 FILLER_8_295
*3987 FILLER_8_298
*3988 FILLER_8_3
*3989 FILLER_8_301
*3990 FILLER_8_304
*3991 FILLER_8_307
*3992 FILLER_8_309
*3993 FILLER_8_312
*3994 FILLER_8_315
*3995 FILLER_8_318
*3996 FILLER_8_32
*3997 FILLER_8_321
*3998 FILLER_8_324
*3999 FILLER_8_327
*4000 FILLER_8_330
*4001 FILLER_8_333
*4002 FILLER_8_35
*4003 FILLER_8_38
*4004 FILLER_8_41
*4005 FILLER_8_44
*4006 FILLER_8_47
*4007 FILLER_8_50
*4008 FILLER_8_53
*4009 FILLER_8_56
*4010 FILLER_8_59
*4011 FILLER_8_6
*4012 FILLER_8_62
*4013 FILLER_8_65
*4014 FILLER_8_68
*4015 FILLER_8_71
*4016 FILLER_8_74
*4017 FILLER_8_77
*4018 FILLER_8_80
*4019 FILLER_8_83
*4020 FILLER_8_85
*4021 FILLER_8_88
*4022 FILLER_8_9
*4023 FILLER_8_91
*4024 FILLER_8_94
*4025 FILLER_8_97
*4026 FILLER_9_102
*4027 FILLER_9_105
*4028 FILLER_9_108
*4029 FILLER_9_111
*4030 FILLER_9_113
*4031 FILLER_9_116
*4032 FILLER_9_119
*4033 FILLER_9_12
*4034 FILLER_9_122
*4035 FILLER_9_125
*4036 FILLER_9_128
*4037 FILLER_9_131
*4038 FILLER_9_134
*4039 FILLER_9_137
*4040 FILLER_9_140
*4041 FILLER_9_143
*4042 FILLER_9_146
*4043 FILLER_9_149
*4044 FILLER_9_15
*4045 FILLER_9_152
*4046 FILLER_9_155
*4047 FILLER_9_158
*4048 FILLER_9_161
*4049 FILLER_9_164
*4050 FILLER_9_167
*4051 FILLER_9_169
*4052 FILLER_9_172
*4053 FILLER_9_175
*4054 FILLER_9_178
*4055 FILLER_9_18
*4056 FILLER_9_181
*4057 FILLER_9_184
*4058 FILLER_9_187
*4059 FILLER_9_190
*4060 FILLER_9_193
*4061 FILLER_9_196
*4062 FILLER_9_199
*4063 FILLER_9_202
*4064 FILLER_9_205
*4065 FILLER_9_208
*4066 FILLER_9_21
*4067 FILLER_9_211
*4068 FILLER_9_214
*4069 FILLER_9_217
*4070 FILLER_9_220
*4071 FILLER_9_223
*4072 FILLER_9_225
*4073 FILLER_9_228
*4074 FILLER_9_231
*4075 FILLER_9_234
*4076 FILLER_9_237
*4077 FILLER_9_24
*4078 FILLER_9_240
*4079 FILLER_9_243
*4080 FILLER_9_246
*4081 FILLER_9_249
*4082 FILLER_9_252
*4083 FILLER_9_255
*4084 FILLER_9_258
*4085 FILLER_9_261
*4086 FILLER_9_264
*4087 FILLER_9_267
*4088 FILLER_9_27
*4089 FILLER_9_270
*4090 FILLER_9_273
*4091 FILLER_9_276
*4092 FILLER_9_279
*4093 FILLER_9_281
*4094 FILLER_9_284
*4095 FILLER_9_287
*4096 FILLER_9_290
*4097 FILLER_9_293
*4098 FILLER_9_296
*4099 FILLER_9_299
*4100 FILLER_9_3
*4101 FILLER_9_30
*4102 FILLER_9_302
*4103 FILLER_9_305
*4104 FILLER_9_308
*4105 FILLER_9_311
*4106 FILLER_9_314
*4107 FILLER_9_317
*4108 FILLER_9_320
*4109 FILLER_9_323
*4110 FILLER_9_326
*4111 FILLER_9_329
*4112 FILLER_9_33
*4113 FILLER_9_332
*4114 FILLER_9_36
*4115 FILLER_9_39
*4116 FILLER_9_42
*4117 FILLER_9_45
*4118 FILLER_9_48
*4119 FILLER_9_51
*4120 FILLER_9_54
*4121 FILLER_9_57
*4122 FILLER_9_6
*4123 FILLER_9_60
*4124 FILLER_9_63
*4125 FILLER_9_66
*4126 FILLER_9_69
*4127 FILLER_9_72
*4128 FILLER_9_75
*4129 FILLER_9_78
*4130 FILLER_9_81
*4131 FILLER_9_84
*4132 FILLER_9_87
*4133 FILLER_9_9
*4134 FILLER_9_90
*4135 FILLER_9_93
*4136 FILLER_9_96
*4137 FILLER_9_99
*4138 PHY_EDGE_ROW_0_Left_39
*4139 PHY_EDGE_ROW_0_Right_0
*4140 PHY_EDGE_ROW_10_Left_49
*4141 PHY_EDGE_ROW_10_Right_10
*4142 PHY_EDGE_ROW_11_Left_50
*4143 PHY_EDGE_ROW_11_Right_11
*4144 PHY_EDGE_ROW_12_Left_51
*4145 PHY_EDGE_ROW_12_Right_12
*4146 PHY_EDGE_ROW_13_Left_52
*4147 PHY_EDGE_ROW_13_Right_13
*4148 PHY_EDGE_ROW_14_Left_53
*4149 PHY_EDGE_ROW_14_Right_14
*4150 PHY_EDGE_ROW_15_Left_54
*4151 PHY_EDGE_ROW_15_Right_15
*4152 PHY_EDGE_ROW_16_Left_55
*4153 PHY_EDGE_ROW_16_Right_16
*4154 PHY_EDGE_ROW_17_Left_56
*4155 PHY_EDGE_ROW_17_Right_17
*4156 PHY_EDGE_ROW_18_Left_57
*4157 PHY_EDGE_ROW_18_Right_18
*4158 PHY_EDGE_ROW_19_Left_58
*4159 PHY_EDGE_ROW_19_Right_19
*4160 PHY_EDGE_ROW_1_Left_40
*4161 PHY_EDGE_ROW_1_Right_1
*4162 PHY_EDGE_ROW_20_Left_59
*4163 PHY_EDGE_ROW_20_Right_20
*4164 PHY_EDGE_ROW_21_Left_60
*4165 PHY_EDGE_ROW_21_Right_21
*4166 PHY_EDGE_ROW_22_Left_61
*4167 PHY_EDGE_ROW_22_Right_22
*4168 PHY_EDGE_ROW_23_Left_62
*4169 PHY_EDGE_ROW_23_Right_23
*4170 PHY_EDGE_ROW_24_Left_63
*4171 PHY_EDGE_ROW_24_Right_24
*4172 PHY_EDGE_ROW_25_Left_64
*4173 PHY_EDGE_ROW_25_Right_25
*4174 PHY_EDGE_ROW_26_Left_65
*4175 PHY_EDGE_ROW_26_Right_26
*4176 PHY_EDGE_ROW_27_Left_66
*4177 PHY_EDGE_ROW_27_Right_27
*4178 PHY_EDGE_ROW_28_Left_67
*4179 PHY_EDGE_ROW_28_Right_28
*4180 PHY_EDGE_ROW_29_Left_68
*4181 PHY_EDGE_ROW_29_Right_29
*4182 PHY_EDGE_ROW_2_Left_41
*4183 PHY_EDGE_ROW_2_Right_2
*4184 PHY_EDGE_ROW_30_Left_69
*4185 PHY_EDGE_ROW_30_Right_30
*4186 PHY_EDGE_ROW_31_Left_70
*4187 PHY_EDGE_ROW_31_Right_31
*4188 PHY_EDGE_ROW_32_Left_71
*4189 PHY_EDGE_ROW_32_Right_32
*4190 PHY_EDGE_ROW_33_Left_72
*4191 PHY_EDGE_ROW_33_Right_33
*4192 PHY_EDGE_ROW_34_Left_73
*4193 PHY_EDGE_ROW_34_Right_34
*4194 PHY_EDGE_ROW_35_Left_74
*4195 PHY_EDGE_ROW_35_Right_35
*4196 PHY_EDGE_ROW_36_Left_75
*4197 PHY_EDGE_ROW_36_Right_36
*4198 PHY_EDGE_ROW_37_Left_76
*4199 PHY_EDGE_ROW_37_Right_37
*4200 PHY_EDGE_ROW_38_Left_77
*4201 PHY_EDGE_ROW_38_Right_38
*4202 PHY_EDGE_ROW_3_Left_42
*4203 PHY_EDGE_ROW_3_Right_3
*4204 PHY_EDGE_ROW_4_Left_43
*4205 PHY_EDGE_ROW_4_Right_4
*4206 PHY_EDGE_ROW_5_Left_44
*4207 PHY_EDGE_ROW_5_Right_5
*4208 PHY_EDGE_ROW_6_Left_45
*4209 PHY_EDGE_ROW_6_Right_6
*4210 PHY_EDGE_ROW_7_Left_46
*4211 PHY_EDGE_ROW_7_Right_7
*4212 PHY_EDGE_ROW_8_Left_47
*4213 PHY_EDGE_ROW_8_Right_8
*4214 PHY_EDGE_ROW_9_Left_48
*4215 PHY_EDGE_ROW_9_Right_9
*4216 TAP_TAPCELL_ROW_0_78
*4217 TAP_TAPCELL_ROW_0_79
*4218 TAP_TAPCELL_ROW_0_80
*4219 TAP_TAPCELL_ROW_0_81
*4220 TAP_TAPCELL_ROW_0_82
*4221 TAP_TAPCELL_ROW_0_83
*4222 TAP_TAPCELL_ROW_0_84
*4223 TAP_TAPCELL_ROW_0_85
*4224 TAP_TAPCELL_ROW_0_86
*4225 TAP_TAPCELL_ROW_0_87
*4226 TAP_TAPCELL_ROW_0_88
*4227 TAP_TAPCELL_ROW_10_138
*4228 TAP_TAPCELL_ROW_10_139
*4229 TAP_TAPCELL_ROW_10_140
*4230 TAP_TAPCELL_ROW_10_141
*4231 TAP_TAPCELL_ROW_10_142
*4232 TAP_TAPCELL_ROW_10_143
*4233 TAP_TAPCELL_ROW_11_144
*4234 TAP_TAPCELL_ROW_11_145
*4235 TAP_TAPCELL_ROW_11_146
*4236 TAP_TAPCELL_ROW_11_147
*4237 TAP_TAPCELL_ROW_11_148
*4238 TAP_TAPCELL_ROW_12_149
*4239 TAP_TAPCELL_ROW_12_150
*4240 TAP_TAPCELL_ROW_12_151
*4241 TAP_TAPCELL_ROW_12_152
*4242 TAP_TAPCELL_ROW_12_153
*4243 TAP_TAPCELL_ROW_12_154
*4244 TAP_TAPCELL_ROW_13_155
*4245 TAP_TAPCELL_ROW_13_156
*4246 TAP_TAPCELL_ROW_13_157
*4247 TAP_TAPCELL_ROW_13_158
*4248 TAP_TAPCELL_ROW_13_159
*4249 TAP_TAPCELL_ROW_14_160
*4250 TAP_TAPCELL_ROW_14_161
*4251 TAP_TAPCELL_ROW_14_162
*4252 TAP_TAPCELL_ROW_14_163
*4253 TAP_TAPCELL_ROW_14_164
*4254 TAP_TAPCELL_ROW_14_165
*4255 TAP_TAPCELL_ROW_15_166
*4256 TAP_TAPCELL_ROW_15_167
*4257 TAP_TAPCELL_ROW_15_168
*4258 TAP_TAPCELL_ROW_15_169
*4259 TAP_TAPCELL_ROW_15_170
*4260 TAP_TAPCELL_ROW_16_171
*4261 TAP_TAPCELL_ROW_16_172
*4262 TAP_TAPCELL_ROW_16_173
*4263 TAP_TAPCELL_ROW_16_174
*4264 TAP_TAPCELL_ROW_16_175
*4265 TAP_TAPCELL_ROW_16_176
*4266 TAP_TAPCELL_ROW_17_177
*4267 TAP_TAPCELL_ROW_17_178
*4268 TAP_TAPCELL_ROW_17_179
*4269 TAP_TAPCELL_ROW_17_180
*4270 TAP_TAPCELL_ROW_17_181
*4271 TAP_TAPCELL_ROW_18_182
*4272 TAP_TAPCELL_ROW_18_183
*4273 TAP_TAPCELL_ROW_18_184
*4274 TAP_TAPCELL_ROW_18_185
*4275 TAP_TAPCELL_ROW_18_186
*4276 TAP_TAPCELL_ROW_18_187
*4277 TAP_TAPCELL_ROW_19_188
*4278 TAP_TAPCELL_ROW_19_189
*4279 TAP_TAPCELL_ROW_19_190
*4280 TAP_TAPCELL_ROW_19_191
*4281 TAP_TAPCELL_ROW_19_192
*4282 TAP_TAPCELL_ROW_1_89
*4283 TAP_TAPCELL_ROW_1_90
*4284 TAP_TAPCELL_ROW_1_91
*4285 TAP_TAPCELL_ROW_1_92
*4286 TAP_TAPCELL_ROW_1_93
*4287 TAP_TAPCELL_ROW_20_193
*4288 TAP_TAPCELL_ROW_20_194
*4289 TAP_TAPCELL_ROW_20_195
*4290 TAP_TAPCELL_ROW_20_196
*4291 TAP_TAPCELL_ROW_20_197
*4292 TAP_TAPCELL_ROW_20_198
*4293 TAP_TAPCELL_ROW_21_199
*4294 TAP_TAPCELL_ROW_21_200
*4295 TAP_TAPCELL_ROW_21_201
*4296 TAP_TAPCELL_ROW_21_202
*4297 TAP_TAPCELL_ROW_21_203
*4298 TAP_TAPCELL_ROW_22_204
*4299 TAP_TAPCELL_ROW_22_205
*4300 TAP_TAPCELL_ROW_22_206
*4301 TAP_TAPCELL_ROW_22_207
*4302 TAP_TAPCELL_ROW_22_208
*4303 TAP_TAPCELL_ROW_22_209
*4304 TAP_TAPCELL_ROW_23_210
*4305 TAP_TAPCELL_ROW_23_211
*4306 TAP_TAPCELL_ROW_23_212
*4307 TAP_TAPCELL_ROW_23_213
*4308 TAP_TAPCELL_ROW_23_214
*4309 TAP_TAPCELL_ROW_24_215
*4310 TAP_TAPCELL_ROW_24_216
*4311 TAP_TAPCELL_ROW_24_217
*4312 TAP_TAPCELL_ROW_24_218
*4313 TAP_TAPCELL_ROW_24_219
*4314 TAP_TAPCELL_ROW_24_220
*4315 TAP_TAPCELL_ROW_25_221
*4316 TAP_TAPCELL_ROW_25_222
*4317 TAP_TAPCELL_ROW_25_223
*4318 TAP_TAPCELL_ROW_25_224
*4319 TAP_TAPCELL_ROW_25_225
*4320 TAP_TAPCELL_ROW_26_226
*4321 TAP_TAPCELL_ROW_26_227
*4322 TAP_TAPCELL_ROW_26_228
*4323 TAP_TAPCELL_ROW_26_229
*4324 TAP_TAPCELL_ROW_26_230
*4325 TAP_TAPCELL_ROW_26_231
*4326 TAP_TAPCELL_ROW_27_232
*4327 TAP_TAPCELL_ROW_27_233
*4328 TAP_TAPCELL_ROW_27_234
*4329 TAP_TAPCELL_ROW_27_235
*4330 TAP_TAPCELL_ROW_27_236
*4331 TAP_TAPCELL_ROW_28_237
*4332 TAP_TAPCELL_ROW_28_238
*4333 TAP_TAPCELL_ROW_28_239
*4334 TAP_TAPCELL_ROW_28_240
*4335 TAP_TAPCELL_ROW_28_241
*4336 TAP_TAPCELL_ROW_28_242
*4337 TAP_TAPCELL_ROW_29_243
*4338 TAP_TAPCELL_ROW_29_244
*4339 TAP_TAPCELL_ROW_29_245
*4340 TAP_TAPCELL_ROW_29_246
*4341 TAP_TAPCELL_ROW_29_247
*4342 TAP_TAPCELL_ROW_2_94
*4343 TAP_TAPCELL_ROW_2_95
*4344 TAP_TAPCELL_ROW_2_96
*4345 TAP_TAPCELL_ROW_2_97
*4346 TAP_TAPCELL_ROW_2_98
*4347 TAP_TAPCELL_ROW_2_99
*4348 TAP_TAPCELL_ROW_30_248
*4349 TAP_TAPCELL_ROW_30_249
*4350 TAP_TAPCELL_ROW_30_250
*4351 TAP_TAPCELL_ROW_30_251
*4352 TAP_TAPCELL_ROW_30_252
*4353 TAP_TAPCELL_ROW_30_253
*4354 TAP_TAPCELL_ROW_31_254
*4355 TAP_TAPCELL_ROW_31_255
*4356 TAP_TAPCELL_ROW_31_256
*4357 TAP_TAPCELL_ROW_31_257
*4358 TAP_TAPCELL_ROW_31_258
*4359 TAP_TAPCELL_ROW_32_259
*4360 TAP_TAPCELL_ROW_32_260
*4361 TAP_TAPCELL_ROW_32_261
*4362 TAP_TAPCELL_ROW_32_262
*4363 TAP_TAPCELL_ROW_32_263
*4364 TAP_TAPCELL_ROW_32_264
*4365 TAP_TAPCELL_ROW_33_265
*4366 TAP_TAPCELL_ROW_33_266
*4367 TAP_TAPCELL_ROW_33_267
*4368 TAP_TAPCELL_ROW_33_268
*4369 TAP_TAPCELL_ROW_33_269
*4370 TAP_TAPCELL_ROW_34_270
*4371 TAP_TAPCELL_ROW_34_271
*4372 TAP_TAPCELL_ROW_34_272
*4373 TAP_TAPCELL_ROW_34_273
*4374 TAP_TAPCELL_ROW_34_274
*4375 TAP_TAPCELL_ROW_34_275
*4376 TAP_TAPCELL_ROW_35_276
*4377 TAP_TAPCELL_ROW_35_277
*4378 TAP_TAPCELL_ROW_35_278
*4379 TAP_TAPCELL_ROW_35_279
*4380 TAP_TAPCELL_ROW_35_280
*4381 TAP_TAPCELL_ROW_36_281
*4382 TAP_TAPCELL_ROW_36_282
*4383 TAP_TAPCELL_ROW_36_283
*4384 TAP_TAPCELL_ROW_36_284
*4385 TAP_TAPCELL_ROW_36_285
*4386 TAP_TAPCELL_ROW_36_286
*4387 TAP_TAPCELL_ROW_37_287
*4388 TAP_TAPCELL_ROW_37_288
*4389 TAP_TAPCELL_ROW_37_289
*4390 TAP_TAPCELL_ROW_37_290
*4391 TAP_TAPCELL_ROW_37_291
*4392 TAP_TAPCELL_ROW_38_292
*4393 TAP_TAPCELL_ROW_38_293
*4394 TAP_TAPCELL_ROW_38_294
*4395 TAP_TAPCELL_ROW_38_295
*4396 TAP_TAPCELL_ROW_38_296
*4397 TAP_TAPCELL_ROW_38_297
*4398 TAP_TAPCELL_ROW_38_298
*4399 TAP_TAPCELL_ROW_38_299
*4400 TAP_TAPCELL_ROW_38_300
*4401 TAP_TAPCELL_ROW_38_301
*4402 TAP_TAPCELL_ROW_38_302
*4403 TAP_TAPCELL_ROW_3_100
*4404 TAP_TAPCELL_ROW_3_101
*4405 TAP_TAPCELL_ROW_3_102
*4406 TAP_TAPCELL_ROW_3_103
*4407 TAP_TAPCELL_ROW_3_104
*4408 TAP_TAPCELL_ROW_4_105
*4409 TAP_TAPCELL_ROW_4_106
*4410 TAP_TAPCELL_ROW_4_107
*4411 TAP_TAPCELL_ROW_4_108
*4412 TAP_TAPCELL_ROW_4_109
*4413 TAP_TAPCELL_ROW_4_110
*4414 TAP_TAPCELL_ROW_5_111
*4415 TAP_TAPCELL_ROW_5_112
*4416 TAP_TAPCELL_ROW_5_113
*4417 TAP_TAPCELL_ROW_5_114
*4418 TAP_TAPCELL_ROW_5_115
*4419 TAP_TAPCELL_ROW_6_116
*4420 TAP_TAPCELL_ROW_6_117
*4421 TAP_TAPCELL_ROW_6_118
*4422 TAP_TAPCELL_ROW_6_119
*4423 TAP_TAPCELL_ROW_6_120
*4424 TAP_TAPCELL_ROW_6_121
*4425 TAP_TAPCELL_ROW_7_122
*4426 TAP_TAPCELL_ROW_7_123
*4427 TAP_TAPCELL_ROW_7_124
*4428 TAP_TAPCELL_ROW_7_125
*4429 TAP_TAPCELL_ROW_7_126
*4430 TAP_TAPCELL_ROW_8_127
*4431 TAP_TAPCELL_ROW_8_128
*4432 TAP_TAPCELL_ROW_8_129
*4433 TAP_TAPCELL_ROW_8_130
*4434 TAP_TAPCELL_ROW_8_131
*4435 TAP_TAPCELL_ROW_8_132
*4436 TAP_TAPCELL_ROW_9_133
*4437 TAP_TAPCELL_ROW_9_134
*4438 TAP_TAPCELL_ROW_9_135
*4439 TAP_TAPCELL_ROW_9_136
*4440 TAP_TAPCELL_ROW_9_137
*4441 _153_
*4442 _154_
*4443 _155_
*4444 _156_
*4445 _157_
*4446 _158_
*4447 _159_
*4448 _160_
*4449 _161_
*4450 _162_
*4451 _163_
*4452 _164_
*4453 _165_
*4454 _166_
*4455 _167_
*4456 _168_
*4457 _169_
*4458 _170_
*4459 _171_
*4460 _172_
*4461 _173_
*4462 _174_
*4463 _175_
*4464 _176_
*4465 _177_
*4466 _178_
*4467 _179_
*4468 _180_
*4469 _181_
*4470 _182_
*4471 _183_
*4472 _184_
*4473 _185_
*4474 _186_
*4475 _187_
*4476 _188_
*4477 _189_
*4478 _190_
*4479 _191_
*4480 _192_
*4481 _193_
*4482 _194_
*4483 _195_
*4484 _196_
*4485 _197_
*4486 _198_
*4487 _199_
*4488 _200_
*4489 _201_
*4490 _202_
*4491 _203_
*4492 _204_
*4493 _205_
*4494 _206_
*4495 _207_
*4496 _208_
*4497 _209_
*4498 _210_
*4499 _211_
*4500 _212_
*4501 _213_
*4502 _214_
*4503 _215_
*4504 _216_
*4505 _217_
*4506 _218_
*4507 _219_
*4508 _220_
*4509 _221_
*4510 _222_
*4511 _223_
*4512 _224_
*4513 _225_
*4514 _226_
*4515 _227_
*4516 _228_
*4517 _229_
*4518 _230_
*4519 _231_
*4520 _232_
*4521 _233_
*4522 _234_
*4523 _235_
*4524 _236_
*4525 _237_
*4526 _238_
*4527 _239_
*4528 _240_
*4529 _241_
*4530 _242_
*4531 _243_
*4532 _244_
*4533 _245_
*4534 _246_
*4535 _247_
*4536 _248_
*4537 _249_
*4538 _250_
*4539 _251_
*4540 _252_
*4541 _253_
*4542 _254_
*4543 _255_
*4544 _256_
*4545 _257_
*4546 _258_
*4547 _259_
*4548 _260_
*4549 _261_
*4550 _262_
*4551 _263_
*4552 _264_
*4553 _265_
*4554 _266_
*4555 _267_
*4556 _268_
*4557 _269_
*4558 _270_
*4559 _271_
*4560 _272_
*4561 _273_
*4562 _274_
*4563 _275_
*4564 _276_
*4565 _277_
*4566 _278_
*4567 _279_
*4568 _280_
*4569 _281_
*4570 _282_
*4571 _283_
*4572 _284_
*4573 _285_
*4574 _286_
*4575 _287_
*4576 _288_
*4577 _289_
*4578 _290_
*4579 _291_
*4580 _292_
*4581 _293_
*4582 _294_
*4583 _295_
*4584 _296_
*4585 _297_
*4586 _298_
*4587 _299_
*4588 _300_
*4589 _301_
*4590 _302_
*4591 _303_
*4592 _304_
*4593 _305_
*4594 _306_
*4595 _307_
*4596 _308_
*4597 _309_
*4598 _310_
*4599 _311_
*4600 _312_
*4601 _313_
*4602 _314_
*4603 _315_
*4604 _316_
*4605 _317_
*4606 _318_
*4607 _319_
*4608 _320_
*4609 _321_
*4610 clkbuf_0_clk
*4611 clkbuf_1_0__f_clk
*4612 clkbuf_1_1__f_clk
*4613 clkload0
*4614 fanout32
*4615 fanout33
*4616 fanout34
*4617 fanout35
*4618 fanout36
*4619 fanout37
*4620 fanout38
*4621 fanout39
*4622 fanout40
*4623 fanout41
*4624 fanout42
*4625 fanout43
*4626 fanout44
*4627 fanout45
*4628 fanout46
*4629 hold1
*4630 hold2
*4631 hold3
*4632 hold4
*4633 hold5
*4634 hold6
*4635 input1
*4636 input2
*4637 input3
*4638 input4
*4639 input5
*4640 input6
*4641 input7
*4642 input8
*4643 max_cap17
*4644 max_cap19
*4645 max_cap20
*4646 max_cap23
*4647 output10
*4648 output11
*4649 output12
*4650 output13
*4651 output14
*4652 output15
*4653 output16
*4654 output9
*4655 tt_um_chip_rom_24
*4656 tt_um_chip_rom_25
*4657 tt_um_chip_rom_26
*4658 tt_um_chip_rom_27
*4659 tt_um_chip_rom_28
*4660 tt_um_chip_rom_29
*4661 tt_um_chip_rom_30
*4662 tt_um_chip_rom_31
*4663 tt_um_chip_rom_32
*4664 tt_um_chip_rom_33
*4665 tt_um_chip_rom_34
*4666 tt_um_chip_rom_35
*4667 tt_um_chip_rom_36
*4668 tt_um_chip_rom_37
*4669 tt_um_chip_rom_38
*4670 tt_um_chip_rom_39
*4671 wire18
*4672 wire21
*4673 wire22

*PORTS
clk I
ena I
rst_n I
ui_in[0] I
ui_in[1] I
ui_in[2] I
ui_in[3] I
ui_in[4] I
ui_in[5] I
ui_in[6] I
ui_in[7] I
uio_in[0] I
uio_in[1] I
uio_in[2] I
uio_in[3] I
uio_in[4] I
uio_in[5] I
uio_in[6] I
uio_in[7] I
uio_oe[0] O
uio_oe[1] O
uio_oe[2] O
uio_oe[3] O
uio_oe[4] O
uio_oe[5] O
uio_oe[6] O
uio_oe[7] O
uio_out[0] O
uio_out[1] O
uio_out[2] O
uio_out[3] O
uio_out[4] O
uio_out[5] O
uio_out[6] O
uio_out[7] O
uo_out[0] O
uo_out[1] O
uo_out[2] O
uo_out[3] O
uo_out[4] O
uo_out[5] O
uo_out[6] O
uo_out[7] O

*D_NET *3 0.0035164
*CONN
*P clk I
*I *4610:A I *D sky130_fd_sc_hd__clkbuf_16
*CAP
1 clk 0.00124296
2 *4610:A 0.00124296
3 *4610:A *4447:A0 0.000189299
4 *4610:A *4452:A1 9.62357e-05
5 *4610:A *4580:B 0.00013521
6 *4610:A *4584:B 0
7 *4610:A *4628:A 3.7324e-05
8 *4610:A *4631:A 4.92206e-05
9 *4610:A *4635:A 0.000123125
10 *4610:A *4636:A 0.000129898
11 *4610:A *135:19 0
12 *4610:A *201:10 6.28765e-05
13 *4610:A *221:12 0.000207285
*RES
1 clk *4610:A 23.9914 
*END

*D_NET *5 0.00656888
*CONN
*P rst_n I
*I *4628:A I *D sky130_fd_sc_hd__clkbuf_1
*CAP
1 rst_n 0.00239429
2 *4628:A 0.00239429
3 *4628:A *4473:A0 0
4 *4628:A *4580:A 0
5 *4628:A *4586:B 0
6 *4628:A *4587:A 0
7 *4628:A *4603:CLK 0
8 *4628:A *4603:RESET_B 0.000150298
9 *4628:A *4605:CLK 0
10 *4628:A *4605:D 0
11 *4628:A *4606:D 0
12 *4628:A *4607:D 0
13 *4628:A *4607:RESET_B 0.000121152
14 *4628:A *4635:A 1.64446e-05
15 *4628:A *4636:A 0
16 *4628:A *137:8 0
17 *4628:A *139:12 0
18 *4628:A *208:10 0
19 *4628:A *208:16 0
20 *4628:A *225:24 0.000343353
21 *4628:A *225:35 0.000403429
22 *4628:A *225:50 0.000475857
23 *4628:A *225:56 0.000113921
24 *4628:A *242:12 0.00011852
25 *4610:A *4628:A 3.7324e-05
*RES
1 rst_n *4628:A 38.3398 
*END

*D_NET *6 0.000615959
*CONN
*P ui_in[0] I
*I *4635:A I *D sky130_fd_sc_hd__buf_1
*CAP
1 ui_in[0] 0.000227909
2 *4635:A 0.000227909
3 *4635:A *4636:A 2.05723e-05
4 *4610:A *4635:A 0.000123125
5 *4628:A *4635:A 1.64446e-05
*RES
1 ui_in[0] *4635:A 7.39603 
*END

*D_NET *7 0.000653545
*CONN
*P ui_in[1] I
*I *4636:A I *D sky130_fd_sc_hd__buf_1
*CAP
1 ui_in[1] 0.000222436
2 *4636:A 0.000222436
3 *4636:A *4637:A 5.82033e-05
4 *4610:A *4636:A 0.000129898
5 *4628:A *4636:A 0
6 *4635:A *4636:A 2.05723e-05
*RES
1 ui_in[1] *4636:A 6.5483 
*END

*D_NET *8 0.000597383
*CONN
*P ui_in[2] I
*I *4637:A I *D sky130_fd_sc_hd__buf_1
*CAP
1 ui_in[2] 0.000240488
2 *4637:A 0.000240488
3 *4637:A *4638:A 5.82033e-05
4 *4637:A *199:38 0
5 *4636:A *4637:A 5.82033e-05
*RES
1 ui_in[2] *4637:A 6.5483 
*END

*D_NET *9 0.00052448
*CONN
*P ui_in[3] I
*I *4638:A I *D sky130_fd_sc_hd__buf_1
*CAP
1 ui_in[3] 0.000178219
2 *4638:A 0.000178219
3 *4638:A *4447:A1 5.16348e-05
4 *4638:A *4639:A 5.82033e-05
5 *4638:A *199:38 0
6 *4637:A *4638:A 5.82033e-05
*RES
1 ui_in[3] *4638:A 6.43177 
*END

*D_NET *10 0.000592691
*CONN
*P ui_in[4] I
*I *4639:A I *D sky130_fd_sc_hd__buf_1
*CAP
1 ui_in[4] 0.000227355
2 *4639:A 0.000227355
3 *4639:A *4447:A1 2.15738e-05
4 *4639:A *4640:A 5.82033e-05
5 *4638:A *4639:A 5.82033e-05
*RES
1 ui_in[4] *4639:A 6.5483 
*END

*D_NET *11 0.000490935
*CONN
*P ui_in[5] I
*I *4640:A I *D sky130_fd_sc_hd__buf_1
*CAP
1 ui_in[5] 0.000187264
2 *4640:A 0.000187264
3 *4640:A *4641:A 5.82033e-05
4 *4639:A *4640:A 5.82033e-05
*RES
1 ui_in[5] *4640:A 6.43177 
*END

*D_NET *12 0.000609023
*CONN
*P ui_in[6] I
*I *4641:A I *D sky130_fd_sc_hd__buf_1
*CAP
1 ui_in[6] 0.000246308
2 *4641:A 0.000246308
3 *4641:A *4642:A 5.82033e-05
4 *4640:A *4641:A 5.82033e-05
*RES
1 ui_in[6] *4641:A 6.5483 
*END

*D_NET *13 0.00060753
*CONN
*P ui_in[7] I
*I *4642:A I *D sky130_fd_sc_hd__buf_1
*CAP
1 ui_in[7] 0.000274663
2 *4642:A 0.000274663
3 *4641:A *4642:A 5.82033e-05
*RES
1 ui_in[7] *4642:A 6.5483 
*END

*D_NET *22 0.000395179
*CONN
*P uio_oe[0] O
*I *4655:LO O *D sky130_fd_sc_hd__conb_1
*CAP
1 uio_oe[0] 0.000119437
2 *4655:LO 0.000119437
3 uio_oe[0] uio_oe[1] 7.81519e-05
4 uio_oe[0] uio_out[7] 7.81519e-05
*RES
1 *4655:LO uio_oe[0] 5.2429 
*END

*D_NET *23 0.000395179
*CONN
*P uio_oe[1] O
*I *4656:LO O *D sky130_fd_sc_hd__conb_1
*CAP
1 uio_oe[1] 0.000119437
2 *4656:LO 0.000119437
3 uio_oe[1] uio_oe[2] 7.81519e-05
4 uio_oe[0] uio_oe[1] 7.81519e-05
*RES
1 *4656:LO uio_oe[1] 5.2429 
*END

*D_NET *24 0.000395179
*CONN
*P uio_oe[2] O
*I *4657:LO O *D sky130_fd_sc_hd__conb_1
*CAP
1 uio_oe[2] 0.000119437
2 *4657:LO 0.000119437
3 uio_oe[2] uio_oe[3] 7.81519e-05
4 uio_oe[1] uio_oe[2] 7.81519e-05
*RES
1 *4657:LO uio_oe[2] 5.2429 
*END

*D_NET *25 0.000395179
*CONN
*P uio_oe[3] O
*I *4658:LO O *D sky130_fd_sc_hd__conb_1
*CAP
1 uio_oe[3] 0.000119437
2 *4658:LO 0.000119437
3 uio_oe[3] uio_oe[4] 7.81519e-05
4 uio_oe[2] uio_oe[3] 7.81519e-05
*RES
1 *4658:LO uio_oe[3] 5.2429 
*END

*D_NET *26 0.000395179
*CONN
*P uio_oe[4] O
*I *4659:LO O *D sky130_fd_sc_hd__conb_1
*CAP
1 uio_oe[4] 0.000119437
2 *4659:LO 0.000119437
3 uio_oe[4] uio_oe[5] 7.81519e-05
4 uio_oe[3] uio_oe[4] 7.81519e-05
*RES
1 *4659:LO uio_oe[4] 5.2429 
*END

*D_NET *27 0.000395179
*CONN
*P uio_oe[5] O
*I *4660:LO O *D sky130_fd_sc_hd__conb_1
*CAP
1 uio_oe[5] 0.000119437
2 *4660:LO 0.000119437
3 uio_oe[5] uio_oe[6] 7.81519e-05
4 uio_oe[4] uio_oe[5] 7.81519e-05
*RES
1 *4660:LO uio_oe[5] 5.2429 
*END

*D_NET *28 0.000395179
*CONN
*P uio_oe[6] O
*I *4661:LO O *D sky130_fd_sc_hd__conb_1
*CAP
1 uio_oe[6] 0.000119437
2 *4661:LO 0.000119437
3 uio_oe[6] uio_oe[7] 7.81519e-05
4 uio_oe[5] uio_oe[6] 7.81519e-05
*RES
1 *4661:LO uio_oe[6] 5.2429 
*END

*D_NET *29 0.000375612
*CONN
*P uio_oe[7] O
*I *4662:LO O *D sky130_fd_sc_hd__conb_1
*CAP
1 uio_oe[7] 0.00014873
2 *4662:LO 0.00014873
3 uio_oe[6] uio_oe[7] 7.81519e-05
*RES
1 *4662:LO uio_oe[7] 5.2429 
*END

*D_NET *30 0.000395179
*CONN
*P uio_out[0] O
*I *4663:LO O *D sky130_fd_sc_hd__conb_1
*CAP
1 uio_out[0] 0.000119437
2 *4663:LO 0.000119437
3 uio_out[0] uio_out[1] 7.81519e-05
4 uio_out[0] uo_out[7] 7.81519e-05
*RES
1 *4663:LO uio_out[0] 5.2429 
*END

*D_NET *31 0.000395179
*CONN
*P uio_out[1] O
*I *4664:LO O *D sky130_fd_sc_hd__conb_1
*CAP
1 uio_out[1] 0.000119437
2 *4664:LO 0.000119437
3 uio_out[1] uio_out[2] 7.81519e-05
4 uio_out[0] uio_out[1] 7.81519e-05
*RES
1 *4664:LO uio_out[1] 5.2429 
*END

*D_NET *32 0.000395179
*CONN
*P uio_out[2] O
*I *4665:LO O *D sky130_fd_sc_hd__conb_1
*CAP
1 uio_out[2] 0.000119437
2 *4665:LO 0.000119437
3 uio_out[2] uio_out[3] 7.81519e-05
4 uio_out[1] uio_out[2] 7.81519e-05
*RES
1 *4665:LO uio_out[2] 5.2429 
*END

*D_NET *33 0.000395179
*CONN
*P uio_out[3] O
*I *4666:LO O *D sky130_fd_sc_hd__conb_1
*CAP
1 uio_out[3] 0.000119437
2 *4666:LO 0.000119437
3 uio_out[3] uio_out[4] 7.81519e-05
4 uio_out[2] uio_out[3] 7.81519e-05
*RES
1 *4666:LO uio_out[3] 5.2429 
*END

*D_NET *34 0.000395179
*CONN
*P uio_out[4] O
*I *4667:LO O *D sky130_fd_sc_hd__conb_1
*CAP
1 uio_out[4] 0.000119437
2 *4667:LO 0.000119437
3 uio_out[4] uio_out[5] 7.81519e-05
4 uio_out[3] uio_out[4] 7.81519e-05
*RES
1 *4667:LO uio_out[4] 5.2429 
*END

*D_NET *35 0.000395179
*CONN
*P uio_out[5] O
*I *4668:LO O *D sky130_fd_sc_hd__conb_1
*CAP
1 uio_out[5] 0.000119437
2 *4668:LO 0.000119437
3 uio_out[5] uio_out[6] 7.81519e-05
4 uio_out[4] uio_out[5] 7.81519e-05
*RES
1 *4668:LO uio_out[5] 5.2429 
*END

*D_NET *36 0.000395179
*CONN
*P uio_out[6] O
*I *4669:LO O *D sky130_fd_sc_hd__conb_1
*CAP
1 uio_out[6] 0.000119437
2 *4669:LO 0.000119437
3 uio_out[6] uio_out[7] 7.81519e-05
4 uio_out[5] uio_out[6] 7.81519e-05
*RES
1 *4669:LO uio_out[6] 5.2429 
*END

*D_NET *37 0.000395179
*CONN
*P uio_out[7] O
*I *4670:LO O *D sky130_fd_sc_hd__conb_1
*CAP
1 uio_out[7] 0.000119437
2 *4670:LO 0.000119437
3 uio_oe[0] uio_out[7] 7.81519e-05
4 uio_out[6] uio_out[7] 7.81519e-05
*RES
1 *4670:LO uio_out[7] 5.2429 
*END

*D_NET *38 0.000385455
*CONN
*P uo_out[0] O
*I *4654:X O *D sky130_fd_sc_hd__clkbuf_1
*CAP
1 uo_out[0] 0.000153651
2 *4654:X 0.000153651
3 uo_out[0] uo_out[1] 7.81519e-05
*RES
1 *4654:X uo_out[0] 5.2429 
*END

*D_NET *39 0.000404976
*CONN
*P uo_out[1] O
*I *4647:X O *D sky130_fd_sc_hd__clkbuf_1
*CAP
1 uo_out[1] 0.000124336
2 *4647:X 0.000124336
3 uo_out[1] uo_out[2] 7.81519e-05
4 uo_out[0] uo_out[1] 7.81519e-05
*RES
1 *4647:X uo_out[1] 5.2429 
*END

*D_NET *40 0.000404976
*CONN
*P uo_out[2] O
*I *4648:X O *D sky130_fd_sc_hd__clkbuf_1
*CAP
1 uo_out[2] 0.000124336
2 *4648:X 0.000124336
3 uo_out[2] uo_out[3] 7.81519e-05
4 uo_out[1] uo_out[2] 7.81519e-05
*RES
1 *4648:X uo_out[2] 5.2429 
*END

*D_NET *41 0.000404976
*CONN
*P uo_out[3] O
*I *4649:X O *D sky130_fd_sc_hd__clkbuf_1
*CAP
1 uo_out[3] 0.000124336
2 *4649:X 0.000124336
3 uo_out[3] uo_out[4] 7.81519e-05
4 uo_out[2] uo_out[3] 7.81519e-05
*RES
1 *4649:X uo_out[3] 5.2429 
*END

*D_NET *42 0.000398283
*CONN
*P uo_out[4] O
*I *4650:X O *D sky130_fd_sc_hd__clkbuf_1
*CAP
1 uo_out[4] 0.00012099
2 *4650:X 0.00012099
3 uo_out[4] uo_out[5] 7.81519e-05
4 uo_out[3] uo_out[4] 7.81519e-05
*RES
1 *4650:X uo_out[4] 5.2429 
*END

*D_NET *43 0.000386839
*CONN
*P uo_out[5] O
*I *4651:X O *D sky130_fd_sc_hd__clkbuf_1
*CAP
1 uo_out[5] 0.000115268
2 *4651:X 0.000115268
3 uo_out[5] uo_out[6] 7.81519e-05
4 uo_out[4] uo_out[5] 7.81519e-05
*RES
1 *4651:X uo_out[5] 5.2429 
*END

*D_NET *44 0.000401342
*CONN
*P uo_out[6] O
*I *4652:X O *D sky130_fd_sc_hd__clkbuf_1
*CAP
1 uo_out[6] 0.000122519
2 *4652:X 0.000122519
3 uo_out[6] uo_out[7] 7.81519e-05
4 uo_out[5] uo_out[6] 7.81519e-05
*RES
1 *4652:X uo_out[6] 5.2429 
*END

*D_NET *45 0.000395179
*CONN
*P uo_out[7] O
*I *4653:X O *D sky130_fd_sc_hd__clkbuf_1
*CAP
1 uo_out[7] 0.000119437
2 *4653:X 0.000119437
3 uio_out[0] uo_out[7] 7.81519e-05
4 uo_out[6] uo_out[7] 7.81519e-05
*RES
1 *4653:X uo_out[7] 5.2429 
*END

*D_NET *46 0.00151413
*CONN
*I *4602:D I *D sky130_fd_sc_hd__dfrtp_4
*I *4442:Y O *D sky130_fd_sc_hd__inv_1
*CAP
1 *4602:D 0.000566711
2 *4442:Y 0.000566711
3 *4602:D *4442:A 4.15527e-05
4 *4602:D *4580:B 0.00033916
*RES
1 *4442:Y *4602:D 10.7375 
*END

*D_NET *47 0.000309162
*CONN
*I *4603:D I *D sky130_fd_sc_hd__dfrtp_4
*I *4580:X O *D sky130_fd_sc_hd__xor2_1
*CAP
1 *4603:D 7.59042e-05
2 *4580:X 7.59042e-05
3 *4603:D *4580:A 8.8266e-05
4 *4603:D *200:16 6.90876e-05
*RES
1 *4580:X *4603:D 5.03 
*END

*D_NET *48 0.000540584
*CONN
*I *4604:D I *D sky130_fd_sc_hd__dfrtp_1
*I *4583:Y O *D sky130_fd_sc_hd__nor2_1
*CAP
1 *4604:D 0.000199891
2 *4583:Y 0.000199891
3 *4604:D *4447:A1 3.68682e-05
4 *4604:D *4583:B 4.99619e-05
5 *4604:D *243:12 5.39718e-05
*RES
1 *4583:Y *4604:D 10.155 
*END

*D_NET *49 0.000434994
*CONN
*I *4605:D I *D sky130_fd_sc_hd__dfrtp_4
*I *4586:Y O *D sky130_fd_sc_hd__nor2_1
*CAP
1 *4605:D 0.000206943
2 *4586:Y 0.000206943
3 *4605:D *4586:A 2.11084e-05
4 *4605:D *4586:B 0
5 *4628:A *4605:D 0
*RES
1 *4586:Y *4605:D 9.81 
*END

*D_NET *50 0.000438829
*CONN
*I *4606:D I *D sky130_fd_sc_hd__dfrtp_4
*I *4587:X O *D sky130_fd_sc_hd__xor2_1
*CAP
1 *4606:D 0.000154945
2 *4587:X 0.000154945
3 *4606:D *4587:A 0.000128939
4 *4606:D *208:10 0
5 *4628:A *4606:D 0
*RES
1 *4587:X *4606:D 10.23 
*END

*D_NET *51 0.000533025
*CONN
*I *4607:D I *D sky130_fd_sc_hd__dfrtp_4
*I *4590:Y O *D sky130_fd_sc_hd__nor2_1
*CAP
1 *4607:D 0.000184339
2 *4590:Y 0.000184339
3 *4607:D *139:12 6.18292e-05
4 *4607:D *139:28 4.82863e-05
5 *4607:D *208:10 5.42303e-05
6 *4628:A *4607:D 0
*RES
1 *4590:Y *4607:D 10.575 
*END

*D_NET *52 0.00122177
*CONN
*I *4608:D I *D sky130_fd_sc_hd__dfrtp_1
*I *4593:X O *D sky130_fd_sc_hd__and2_1
*CAP
1 *4608:D 0.000533475
2 *4593:X 0.000533475
3 *4608:D *4593:B 5.83121e-06
4 *4608:D *4609:CLK 0.000148987
*RES
1 *4593:X *4608:D 9.875 
*END

*D_NET *53 0.000471256
*CONN
*I *4609:D I *D sky130_fd_sc_hd__dfrtp_1
*I *4594:Y O *D sky130_fd_sc_hd__xnor2_1
*CAP
1 *4609:D 0.000127229
2 *4594:Y 0.000127229
3 *4609:D *4594:A 0.000120186
4 *4609:D *4609:RESET_B 9.66106e-05
*RES
1 *4594:Y *4609:D 10.065 
*END

*D_NET *54 0.00601905
*CONN
*I *4487:A1 I *D sky130_fd_sc_hd__o21a_1
*I *4602:RESET_B I *D sky130_fd_sc_hd__dfrtp_4
*I *4461:A1 I *D sky130_fd_sc_hd__o21ai_4
*I *4501:A1 I *D sky130_fd_sc_hd__o21ai_4
*I *4486:A1 I *D sky130_fd_sc_hd__o21ai_4
*I *4441:Y O *D sky130_fd_sc_hd__inv_6
*CAP
1 *4487:A1 0.000308001
2 *4602:RESET_B 0.00023491
3 *4461:A1 6.10316e-05
4 *4501:A1 0.000474676
5 *4486:A1 0.000340462
6 *4441:Y 0
7 *54:25 0.000970889
8 *54:10 0.000724402
9 *54:6 0.00049167
10 *4486:A1 *185:12 8.8266e-05
11 *4487:A1 *4486:B1 0
12 *4487:A1 *4487:A2 0.000445837
13 *4487:A1 *4487:B1 6.26016e-05
14 *4487:A1 *185:12 2.8185e-05
15 *4501:A1 *4501:A2 0.000187416
16 *4501:A1 *185:12 0
17 *4602:RESET_B *4452:S 0
18 *4602:RESET_B *4501:A2 0.000189815
19 *4602:RESET_B *241:37 0
20 *4602:RESET_B *251:12 0
21 *54:10 *4501:A2 0.000208071
22 *54:10 *241:37 0
23 *54:25 *162:12 0.000141606
24 *54:25 *185:12 0.000765273
25 *54:25 *233:18 0.000295933
26 *54:25 *243:12 0
*RES
1 *4441:Y *54:6 3.6 
2 *54:6 *54:10 7.715 
3 *54:10 *4486:A1 2.395 
4 *54:10 *54:25 16.51 
5 *54:25 *4501:A1 13.685 
6 *54:25 *4461:A1 2.395 
7 *54:6 *4602:RESET_B 7.205 
8 *4486:A1 *4487:A1 9.56 
*END

*D_NET *55 0.000638159
*CONN
*I *4603:RESET_B I *D sky130_fd_sc_hd__dfrtp_4
*I *4595:Y O *D sky130_fd_sc_hd__inv_1
*CAP
1 *4603:RESET_B 9.09449e-05
2 *4595:Y 9.09449e-05
3 *4603:RESET_B *4580:A 3.51596e-05
4 *4603:RESET_B *225:50 0.000270812
5 *4628:A *4603:RESET_B 0.000150298
*RES
1 *4595:Y *4603:RESET_B 8.6225 
*END

*D_NET *56 0.000406806
*CONN
*I *4604:RESET_B I *D sky130_fd_sc_hd__dfrtp_1
*I *4596:Y O *D sky130_fd_sc_hd__inv_1
*CAP
1 *4604:RESET_B 7.38544e-05
2 *4596:Y 7.38544e-05
3 *4604:RESET_B *4443:A1 9.54399e-05
4 *4604:RESET_B *4473:A1 9.71067e-05
5 *4604:RESET_B *4583:B 6.65504e-05
*RES
1 *4596:Y *4604:RESET_B 7.3475 
*END

*D_NET *57 0.000221144
*CONN
*I *4605:RESET_B I *D sky130_fd_sc_hd__dfrtp_4
*I *4597:Y O *D sky130_fd_sc_hd__inv_1
*CAP
1 *4605:RESET_B 8.49143e-05
2 *4597:Y 8.49143e-05
3 *4605:RESET_B *225:50 5.13155e-05
*RES
1 *4597:Y *4605:RESET_B 7.0025 
*END

*D_NET *58 0.000247953
*CONN
*I *4606:RESET_B I *D sky130_fd_sc_hd__dfrtp_4
*I *4598:Y O *D sky130_fd_sc_hd__inv_1
*CAP
1 *4606:RESET_B 7.54231e-05
2 *4598:Y 7.54231e-05
3 *4606:RESET_B *225:35 9.71067e-05
*RES
1 *4598:Y *4606:RESET_B 7.0025 
*END

*D_NET *59 0.000589937
*CONN
*I *4607:RESET_B I *D sky130_fd_sc_hd__dfrtp_4
*I *4599:Y O *D sky130_fd_sc_hd__inv_1
*CAP
1 *4607:RESET_B 0.000105122
2 *4599:Y 0.000105122
3 *4607:RESET_B *4599:A 6.9114e-05
4 *4607:RESET_B *225:24 0.000189426
5 *4628:A *4607:RESET_B 0.000121152
*RES
1 *4599:Y *4607:RESET_B 8.9675 
*END

*D_NET *60 0.000217951
*CONN
*I *4608:RESET_B I *D sky130_fd_sc_hd__dfrtp_1
*I *4600:Y O *D sky130_fd_sc_hd__inv_1
*CAP
1 *4608:RESET_B 0.000103527
2 *4600:Y 0.000103527
3 *4608:RESET_B *205:8 0
4 *4608:RESET_B *242:20 1.08975e-05
*RES
1 *4600:Y *4608:RESET_B 7.0025 
*END

*D_NET *61 0.000535556
*CONN
*I *4609:RESET_B I *D sky130_fd_sc_hd__dfrtp_1
*I *4601:Y O *D sky130_fd_sc_hd__inv_1
*CAP
1 *4609:RESET_B 0.000204873
2 *4601:Y 0.000204873
3 *4609:RESET_B *4609:CLK 2.92e-05
4 *4609:D *4609:RESET_B 9.66106e-05
*RES
1 *4601:Y *4609:RESET_B 4.93 
*END

*D_NET *62 0.00110093
*CONN
*I *4508:B1 I *D sky130_fd_sc_hd__a32o_1
*I *4499:X O *D sky130_fd_sc_hd__a2bb2o_1
*CAP
1 *4508:B1 0.000368848
2 *4499:X 0.000368848
3 *4508:B1 *4508:A1 8.40213e-05
4 *4508:B1 *4508:A3 2.46089e-05
5 *4508:B1 *4520:A2 0.000116151
6 *4508:B1 *4520:B1 0.000113679
7 *4508:B1 *4651:A 0
8 *4508:B1 *69:27 2.4775e-05
*RES
1 *4499:X *4508:B1 13.8525 
*END

*D_NET *63 0.00173893
*CONN
*I *4501:B1 I *D sky130_fd_sc_hd__o21ai_4
*I *4500:X O *D sky130_fd_sc_hd__or2_4
*CAP
1 *4501:B1 0.000733508
2 *4500:X 0.000733508
3 *4501:B1 *4485:A 0
4 *4501:B1 *4501:A2 0.000145184
5 *4501:B1 *143:16 0.000126732
6 *4501:B1 *185:12 0
*RES
1 *4500:X *4501:B1 19.74 
*END

*D_NET *64 0.0218034
*CONN
*I *4520:B2 I *D sky130_fd_sc_hd__a22o_1
*I *4535:B2 I *D sky130_fd_sc_hd__a32o_1
*I *4561:B2 I *D sky130_fd_sc_hd__a32o_1
*I *4549:A1 I *D sky130_fd_sc_hd__a21o_1
*I *4566:A1 I *D sky130_fd_sc_hd__a21bo_1
*I *4503:A I *D sky130_fd_sc_hd__nor2_2
*I *4579:A1 I *D sky130_fd_sc_hd__mux2_4
*I *4508:B2 I *D sky130_fd_sc_hd__a32o_1
*I *4501:Y O *D sky130_fd_sc_hd__o21ai_4
*CAP
1 *4520:B2 0
2 *4535:B2 0.000128165
3 *4561:B2 0
4 *4549:A1 0
5 *4566:A1 0
6 *4503:A 0.000335562
7 *4579:A1 6.55706e-05
8 *4508:B2 0
9 *4501:Y 0.00205509
10 *64:71 0.0010421
11 *64:63 0.00180705
12 *64:51 0.00201177
13 *64:45 0.00102858
14 *64:41 0.000854842
15 *64:28 0.000633396
16 *64:24 0.000284125
17 *64:20 0.00224961
18 *4503:A *4575:A2 3.96737e-05
19 *4503:A *4577:B1 0.000105844
20 *4503:A *4578:A 7.17466e-05
21 *4503:A *4578:B 0.000531774
22 *4503:A *4578:C 2.11901e-05
23 *4503:A *4579:A0 5.58436e-05
24 *4503:A *4579:S 6.29305e-05
25 *4503:A *66:10 8.65905e-05
26 *4503:A *163:30 6.69608e-06
27 *4503:A *163:43 2.20014e-05
28 *4503:A *177:14 0.000155601
29 *4503:A *177:26 0.000131168
30 *4503:A *238:38 7.10083e-05
31 *4503:A *238:40 0.000410675
32 *4535:B2 *4506:C 3.09233e-05
33 *4535:B2 *4561:A2 0.000333702
34 *4535:B2 *67:21 0.00035442
35 *4579:A1 *4579:A0 0.000318091
36 *4579:A1 *4579:S 0.000373287
37 *64:20 *4444:A 0.000147066
38 *64:20 *4444:B 0
39 *64:20 *4445:B 0.000252289
40 *64:20 *4470:A 0.000379905
41 *64:20 *4470:B 3.00381e-05
42 *64:20 *4507:A 0.000266088
43 *64:20 *143:16 8.65961e-05
44 *64:20 *144:8 0
45 *64:20 *144:10 0
46 *64:20 *186:16 9.30787e-05
47 *64:20 *195:16 0.000727495
48 *64:20 *230:22 8.65961e-05
49 *64:20 *232:46 8.69182e-05
50 *64:20 *241:37 0
51 *64:20 *251:12 0
52 *64:24 *4507:A 0.000542788
53 *64:24 *4507:B 6.05513e-05
54 *64:24 *4520:A1 6.58423e-05
55 *64:24 *4647:A 0.000620285
56 *64:24 *195:16 0.000143958
57 *64:28 *4520:A1 0
58 *64:28 *4536:B 0
59 *64:28 *182:16 0.000161623
60 *64:41 *4506:A 0.000238
61 *64:41 *4536:A 4.72876e-05
62 *64:41 *4561:A1 2.20732e-05
63 *64:41 *4561:A2 1.19928e-05
64 *64:41 *4650:A 0.000624524
65 *64:41 *4653:A 0.00039046
66 *64:41 *69:10 0
67 *64:41 *69:27 0.000302999
68 *64:41 *182:16 5.16348e-05
69 *64:45 *4561:A1 1.33293e-05
70 *64:45 *4561:A2 2.81759e-05
71 *64:45 *4561:A3 2.75145e-05
72 *64:45 *4561:B1 2.42747e-05
73 *64:45 *4650:A 1.16578e-05
74 *64:51 *4561:B1 0.000316421
75 *64:63 *4549:A2 0.000210846
76 *64:63 *4649:A 0
77 *64:71 *4566:B1_N 4.91189e-05
78 *64:71 *4576:A2 0
79 *64:71 *4578:C 2.97004e-06
*RES
1 *4501:Y *64:20 45.545 
2 *64:20 *64:24 8.4 
3 *64:24 *64:28 3.89 
4 *64:28 *4508:B2 3.6 
5 *64:28 *64:41 16.865 
6 *64:41 *64:45 3.135 
7 *64:45 *64:51 16.07 
8 *64:51 *64:63 24.195 
9 *64:63 *64:71 14.53 
10 *64:71 *4579:A1 5.17 
11 *64:71 *4503:A 16.715 
12 *64:63 *4566:A1 1.6 
13 *64:51 *4549:A1 3.6 
14 *64:45 *4561:B2 1.6 
15 *64:41 *4535:B2 10.4 
16 *64:24 *4520:B2 1.6 
*END

*D_NET *65 0.00590803
*CONN
*I *4555:B1 I *D sky130_fd_sc_hd__a21oi_1
*I *4503:B I *D sky130_fd_sc_hd__nor2_2
*I *4569:B1 I *D sky130_fd_sc_hd__a31oi_1
*I *4502:Y O *D sky130_fd_sc_hd__nand2_2
*CAP
1 *4555:B1 0.00118537
2 *4503:B 0.000135294
3 *4569:B1 0.000164391
4 *4502:Y 0
5 *65:6 0.000331562
6 *65:4 0.00121725
7 *4503:B *4572:A1 3.50033e-05
8 *4503:B *105:31 0.000473642
9 *4503:B *177:14 0.000536491
10 *4555:B1 *4545:B 0.000158297
11 *4555:B1 *4555:A2 1.37328e-05
12 *4555:B1 *4556:B1 3.00381e-05
13 *4555:B1 *4570:A1 4.66108e-05
14 *4555:B1 *4571:B1 3.1835e-05
15 *4555:B1 *4572:A1 9.81156e-05
16 *4555:B1 *4572:A2 0.000158066
17 *4555:B1 *4572:C1 0.000617716
18 *4569:B1 *4577:B1 5.88634e-05
19 *4569:B1 *124:12 0
20 *4569:B1 *158:28 0.000233104
21 *4569:B1 *163:30 5.91234e-05
22 *4569:B1 *164:19 0.000130361
23 *4569:B1 *234:114 1.53032e-05
24 *65:6 *158:28 0.000110668
25 *65:6 *164:19 6.71882e-05
*RES
1 *4502:Y *65:4 1.6 
2 *65:4 *65:6 1.14 
3 *65:6 *4569:B1 9.92 
4 *65:6 *4503:B 11.825 
5 *65:4 *4555:B1 26.93 
*END

*D_NET *66 0.00897381
*CONN
*I *4504:B I *D sky130_fd_sc_hd__and2_4
*I *4565:D_N I *D sky130_fd_sc_hd__or4b_1
*I *4578:B I *D sky130_fd_sc_hd__and3_1
*I *4503:Y O *D sky130_fd_sc_hd__nor2_2
*CAP
1 *4504:B 0.00124821
2 *4565:D_N 0.000156878
3 *4578:B 0.000598912
4 *4503:Y 7.90599e-05
5 *66:23 0.00158518
6 *66:10 0.000858062
7 *4504:B *4488:A 0.000226855
8 *4504:B *4548:A1 5.4003e-05
9 *4504:B *4565:A 0.000452577
10 *4504:B *4565:C 0.000123225
11 *4504:B *120:16 0.000947102
12 *4504:B *186:53 0.000160641
13 *4504:B *188:41 0.00016881
14 *4565:D_N *4565:C 0.000310957
15 *4578:B *4576:C1 5.83121e-06
16 *4578:B *177:26 0.000204118
17 *4578:B *177:35 6.07575e-06
18 *4578:B *238:40 1.33285e-05
19 *66:10 *4572:A1 8.88038e-05
20 *66:10 *4575:A2 4.99619e-05
21 *66:10 *105:31 9.37731e-05
22 *66:10 *238:38 2.14672e-05
23 *66:23 *4564:A2_N 0.00011686
24 *66:23 *4565:C 7.04021e-05
25 *66:23 *4572:A1 1.15688e-05
26 *66:23 *4575:A1 0.000157595
27 *66:23 *105:31 0.000435648
28 *66:23 *161:86 0.000109541
29 *4503:A *4578:B 0.000531774
30 *4503:A *66:10 8.65905e-05
*RES
1 *4503:Y *66:10 5.865 
2 *66:10 *4578:B 11.295 
3 *66:10 *66:23 8.48 
4 *66:23 *4565:D_N 4.465 
5 *66:23 *4504:B 32.27 
*END

*D_NET *67 0.00340245
*CONN
*I *4506:C I *D sky130_fd_sc_hd__and3_4
*I *4561:A3 I *D sky130_fd_sc_hd__a32o_1
*I *4535:A2 I *D sky130_fd_sc_hd__a32o_1
*I *4504:X O *D sky130_fd_sc_hd__and2_4
*CAP
1 *4506:C 0.000830307
2 *4561:A3 1.17533e-05
3 *4535:A2 0.000176815
4 *4504:X 3.43507e-05
5 *67:21 0.00104134
6 *67:8 0.000410446
7 *4506:C *4506:A 0.000165698
8 *4506:C *4506:B 3.00381e-05
9 *4535:A2 *4535:A3 6.35161e-05
10 *4535:A2 *4535:B1 2.09749e-05
11 *4561:A3 *4561:A2 4.82863e-05
12 *67:8 *4534:A 5.39718e-05
13 *67:8 *4561:A2 5.2089e-05
14 *67:21 *4534:A 2.4997e-05
15 *67:21 *4561:A2 2.50049e-05
16 *4535:B2 *4506:C 3.09233e-05
17 *4535:B2 *67:21 0.00035442
18 *64:45 *4561:A3 2.75145e-05
*RES
1 *4504:X *67:8 4.725 
2 *67:8 *4535:A2 5.79 
3 *67:8 *67:21 4.695 
4 *67:21 *4561:A3 4.05 
5 *67:21 *4506:C 17.25 
*END

*D_NET *68 0.000576182
*CONN
*I *4542:C1 I *D sky130_fd_sc_hd__o311a_1
*I *4571:A2 I *D sky130_fd_sc_hd__o211a_1
*I *4505:Y O *D sky130_fd_sc_hd__nand2_1
*CAP
1 *4542:C1 3.22273e-05
2 *4571:A2 6.25748e-05
3 *4505:Y 4.21288e-05
4 *68:10 0.000136931
5 *4542:C1 *4465:A 4.66826e-05
6 *4542:C1 *4542:B1 6.68594e-05
7 *4571:A2 *4465:A 5.75628e-05
8 *68:10 *4542:B1 3.09164e-05
9 *68:10 *4543:A1 6.55328e-05
10 *68:10 *4570:A2 3.47668e-05
*RES
1 *4505:Y *68:10 6.98 
2 *68:10 *4571:A2 2.755 
3 *68:10 *4542:C1 2.755 
*END

*D_NET *69 0.00148444
*CONN
*I *4508:A2 I *D sky130_fd_sc_hd__a32o_1
*I *4520:A2 I *D sky130_fd_sc_hd__a22o_1
*I *4536:C I *D sky130_fd_sc_hd__and3_4
*I *4506:X O *D sky130_fd_sc_hd__and3_4
*CAP
1 *4508:A2 0
2 *4520:A2 7.23649e-05
3 *4536:C 0
4 *4506:X 0.000111551
5 *69:27 0.000264871
6 *69:10 0.000304057
7 *4520:A2 *4508:A3 0
8 *4520:A2 *4520:B1 5.53249e-06
9 *4520:A2 *182:16 5.93588e-05
10 *69:10 *4506:B 0
11 *69:27 *4508:A1 2.75145e-05
12 *69:27 *4536:A 5.70402e-05
13 *69:27 *4653:A 1.33285e-05
14 *69:27 *182:10 0.0001249
15 *4508:B1 *4520:A2 0.000116151
16 *4508:B1 *69:27 2.4775e-05
17 *64:41 *69:10 0
18 *64:41 *69:27 0.000302999
*RES
1 *4506:X *69:10 7.235 
2 *69:10 *4536:C 1.6 
3 *69:10 *69:27 5.14875 
4 *69:27 *4520:A2 7.49 
5 *69:27 *4508:A2 1.6 
*END

*D_NET *70 0.000444251
*CONN
*I *4508:A3 I *D sky130_fd_sc_hd__a32o_1
*I *4507:Y O *D sky130_fd_sc_hd__nand2_1
*CAP
1 *4508:A3 0.000110587
2 *4507:Y 0.000110587
3 *4508:A3 *4508:A1 0.000124895
4 *4508:A3 *4651:A 0
5 *4508:A3 *182:10 7.35729e-05
6 *4508:B1 *4508:A3 2.46089e-05
7 *4520:A2 *4508:A3 0
*RES
1 *4507:Y *4508:A3 9.72 
*END

*D_NET *71 0.00222383
*CONN
*I *4512:A3 I *D sky130_fd_sc_hd__o32a_1
*I *4509:X O *D sky130_fd_sc_hd__and3_1
*CAP
1 *4512:A3 0.000739284
2 *4509:X 0.000739284
3 *4512:A3 *4472:B1 2.66935e-05
4 *4512:A3 *4509:C 0.000164874
5 *4512:A3 *143:33 0.000457459
6 *4512:A3 *153:10 9.62357e-05
7 *4512:A3 *222:10 0
*RES
1 *4509:X *4512:A3 18.285 
*END

*D_NET *72 0.000422337
*CONN
*I *4512:B1 I *D sky130_fd_sc_hd__o32a_1
*I *4510:Y O *D sky130_fd_sc_hd__a21oi_1
*CAP
1 *4512:B1 4.38523e-05
2 *4510:Y 4.38523e-05
3 *4512:B1 *4510:A1 5.78726e-05
4 *4512:B1 *4510:A2 7.29556e-05
5 *4512:B1 *143:33 0.000203804
*RES
1 *4510:Y *4512:B1 5.11625 
*END

*D_NET *73 0.000745999
*CONN
*I *4512:B2 I *D sky130_fd_sc_hd__o32a_1
*I *4511:Y O *D sky130_fd_sc_hd__o31ai_1
*CAP
1 *4512:B2 0.000223604
2 *4511:Y 0.000223604
3 *4512:B2 *4472:A2 6.02202e-05
4 *4512:B2 *4512:A2 6.02202e-05
5 *4512:B2 *173:36 4.43682e-05
6 *4512:B2 *227:16 0.000122325
7 *4512:B2 *227:22 1.16578e-05
*RES
1 *4511:Y *4512:B2 10.755 
*END

*D_NET *74 0.000685869
*CONN
*I *4514:A2_N I *D sky130_fd_sc_hd__a2bb2o_1
*I *4512:X O *D sky130_fd_sc_hd__o32a_1
*CAP
1 *4514:A2_N 9.16254e-05
2 *4512:X 9.16254e-05
3 *4514:A2_N *4510:A2 0.000123835
4 *4514:A2_N *143:33 0.000351268
5 *4514:A2_N *173:63 2.75145e-05
*RES
1 *4512:X *4514:A2_N 6.77 
*END

*D_NET *75 0.00129759
*CONN
*I *4514:B1 I *D sky130_fd_sc_hd__a2bb2o_1
*I *4513:X O *D sky130_fd_sc_hd__o22a_1
*CAP
1 *4514:B1 0.000410278
2 *4513:X 0.000410278
3 *4514:B1 *4511:A1 0.000174279
4 *4514:B1 *149:22 0
5 *4514:B1 *167:20 0.000119631
6 *4514:B1 *173:36 0
7 *4514:B1 *173:49 4.32778e-05
8 *4514:B1 *173:166 2.97004e-06
9 *4514:B1 *230:56 0.000136877
10 *4514:B1 *232:37 0
*RES
1 *4513:X *4514:B1 14.235 
*END

*D_NET *76 0.00222759
*CONN
*I *4519:B1 I *D sky130_fd_sc_hd__a32o_1
*I *4514:X O *D sky130_fd_sc_hd__a2bb2o_1
*CAP
1 *4519:B1 0.000463261
2 *4514:X 0.000463261
3 *4519:B1 *4472:A3 0.000670025
4 *4519:B1 *4519:A2 0.000107418
5 *4519:B1 *4562:C 0.000345381
6 *4519:B1 *77:23 4.7101e-05
7 *4519:B1 *161:29 0.000131146
*RES
1 *4514:X *4519:B1 19.5525 
*END

*D_NET *77 0.00893803
*CONN
*I *4557:B1 I *D sky130_fd_sc_hd__o21ai_1
*I *4547:A2 I *D sky130_fd_sc_hd__a211o_1
*I *4516:C_N I *D sky130_fd_sc_hd__or3b_1
*I *4515:X O *D sky130_fd_sc_hd__a22o_4
*CAP
1 *4557:B1 2.08101e-05
2 *4547:A2 0.000519798
3 *4516:C_N 3.76065e-05
4 *4515:X 0.000523584
5 *77:23 0.00154917
6 *77:10 0.00156975
7 *4516:C_N *4472:A3 0
8 *4516:C_N *4519:B2 0
9 *4516:C_N *4562:C 0
10 *4516:C_N *161:20 4.18603e-06
11 *4547:A2 *4547:A1 7.36484e-05
12 *4547:A2 *4548:A1 0.000104883
13 *4547:A2 *4549:A2 0
14 *4547:A2 *4559:B1 0.000238919
15 *4547:A2 *186:57 0.00015997
16 *4547:A2 *186:61 4.82863e-05
17 *77:10 *4475:A 0.000385327
18 *77:10 *4475:B 4.82919e-05
19 *77:10 *4484:B1 0.000245599
20 *77:10 *4515:B1 6.16204e-05
21 *77:10 *4562:C 0
22 *77:10 *186:16 1.12578e-05
23 *77:23 *4484:B2 0.000193647
24 *77:23 *4516:B 0.000238919
25 *77:23 *4520:B1 8.40269e-05
26 *77:23 *4529:A2 0.000163204
27 *77:23 *4532:A2 0.00069176
28 *77:23 *4559:B1 4.82863e-05
29 *77:23 *161:29 0.00161858
30 *77:23 *161:31 0.000201503
31 *77:23 *161:35 4.82919e-05
32 *4519:B1 *77:23 4.7101e-05
*RES
1 *4515:X *77:10 13.965 
2 *77:10 *4516:C_N 4.215 
3 *77:10 *77:23 26.6 
4 *77:23 *4547:A2 15.185 
5 *77:23 *4557:B1 1.96 
*END

*D_NET *78 0.000453858
*CONN
*I *4519:A2 I *D sky130_fd_sc_hd__a32o_1
*I *4516:X O *D sky130_fd_sc_hd__or3b_1
*CAP
1 *4519:A2 0.000154353
2 *4516:X 0.000154353
3 *4519:A2 *161:29 3.77341e-05
4 *4519:B1 *4519:A2 0.000107418
*RES
1 *4516:X *4519:A2 5.39 
*END

*D_NET *79 0.00056592
*CONN
*I *4518:B1 I *D sky130_fd_sc_hd__a211o_1
*I *4517:Y O *D sky130_fd_sc_hd__nor2_1
*CAP
1 *4518:B1 0.000125861
2 *4517:Y 0.000125861
3 *4518:B1 *4484:A2 2.66586e-05
4 *4518:B1 *4518:A1 4.76044e-05
5 *4518:B1 *4518:A2 0.0001249
6 *4518:B1 *4518:C1 3.26889e-05
7 *4518:B1 *4530:B1 8.23457e-05
*RES
1 *4517:Y *4518:B1 6.08 
*END

*D_NET *80 0.000749768
*CONN
*I *4519:A3 I *D sky130_fd_sc_hd__a32o_1
*I *4518:X O *D sky130_fd_sc_hd__a211o_1
*CAP
1 *4519:A3 7.7024e-05
2 *4518:X 7.7024e-05
3 *4519:A3 *4478:B1 0.00014971
4 *4519:A3 *4484:A2 0.000295393
5 *4519:A3 *177:69 0.000150617
*RES
1 *4518:X *4519:A3 10.62 
*END

*D_NET *81 0.00195989
*CONN
*I *4520:B1 I *D sky130_fd_sc_hd__a22o_1
*I *4519:X O *D sky130_fd_sc_hd__a32o_1
*CAP
1 *4520:B1 0.000392544
2 *4519:X 0.000392544
3 *4520:B1 *4478:B1 0.00013521
4 *4520:B1 *4484:A2 9.30787e-05
5 *4520:B1 *4499:A1_N 0.000291358
6 *4520:B1 *4516:B 1.1561e-05
7 *4520:B1 *182:16 0.000320104
8 *4520:B1 *182:20 7.81221e-05
9 *4520:B1 *183:10 3.05646e-05
10 *4520:B1 *187:14 1.1561e-05
11 *4508:B1 *4520:B1 0.000113679
12 *4520:A2 *4520:B1 5.53249e-06
13 *77:23 *4520:B1 8.40269e-05
*RES
1 *4519:X *4520:B1 17.79 
*END

*D_NET *82 0.000451642
*CONN
*I *4526:A I *D sky130_fd_sc_hd__or3b_1
*I *4521:X O *D sky130_fd_sc_hd__o2111a_1
*CAP
1 *4526:A 0.00011466
2 *4521:X 0.00011466
3 *4526:A *4532:A2 2.87867e-05
4 *4526:A *155:20 8.23457e-05
5 *4526:A *195:32 0
6 *4526:A *234:16 0.000111189
*RES
1 *4521:X *4526:A 9.375 
*END

*D_NET *83 0.00561699
*CONN
*I *4523:C I *D sky130_fd_sc_hd__or3_1
*I *4529:A1 I *D sky130_fd_sc_hd__o21ai_1
*I *4522:X O *D sky130_fd_sc_hd__and3b_1
*CAP
1 *4523:C 2.1118e-05
2 *4529:A1 0.000543044
3 *4522:X 0.000561636
4 *83:16 0.0011258
5 *4523:C *149:28 1.83847e-05
6 *4529:A1 *4527:A2 0.00026458
7 *4529:A1 *4527:B1 0.000148794
8 *4529:A1 *4556:A2 0.000116853
9 *4529:A1 *89:10 4.11198e-05
10 *4529:A1 *149:28 9.23772e-05
11 *4529:A1 *157:36 0.00020779
12 *4529:A1 *157:47 0.000381323
13 *4529:A1 *157:68 7.21296e-06
14 *4529:A1 *161:39 0.000102116
15 *4529:A1 *163:75 0.000115391
16 *4529:A1 *173:81 0.000114492
17 *4529:A1 *194:46 0.000557231
18 *4529:A1 *238:10 0.000358937
19 *83:16 *4522:B 4.66108e-05
20 *83:16 *4539:B1 7.23602e-05
21 *83:16 *4540:C1 0.000234449
22 *83:16 *161:58 8.52172e-05
23 *83:16 *194:46 0
24 *83:16 *234:20 0.000378513
25 *83:16 *237:16 2.16389e-05
*RES
1 *4522:X *83:16 14.69 
2 *83:16 *4529:A1 24.2 
3 *83:16 *4523:C 2.05 
*END

*D_NET *84 0.00122793
*CONN
*I *4524:C1 I *D sky130_fd_sc_hd__o211a_1
*I *4523:X O *D sky130_fd_sc_hd__or3_1
*CAP
1 *4524:C1 0.000279769
2 *4523:X 0.000279769
3 *4524:C1 *4524:B1 4.82863e-05
4 *4524:C1 *167:26 0.00054457
5 *4524:C1 *237:10 7.55391e-05
*RES
1 *4523:X *4524:C1 13.77 
*END

*D_NET *85 0.000429489
*CONN
*I *4526:B I *D sky130_fd_sc_hd__or3b_1
*I *4524:X O *D sky130_fd_sc_hd__o211a_1
*CAP
1 *4526:B 7.25087e-05
2 *4524:X 7.25087e-05
3 *4526:B *4497:A1 9.97548e-05
4 *4526:B *234:16 0.000184717
*RES
1 *4524:X *4526:B 9.345 
*END

*D_NET *86 0.0013922
*CONN
*I *4526:C_N I *D sky130_fd_sc_hd__or3b_1
*I *4525:X O *D sky130_fd_sc_hd__a2111o_1
*CAP
1 *4526:C_N 0.000211603
2 *4525:X 0.000211603
3 *4526:C_N *181:46 0.000690878
4 *4526:C_N *219:42 0.000278117
*RES
1 *4525:X *4526:C_N 9.515 
*END

*D_NET *87 0.00405663
*CONN
*I *4532:A2 I *D sky130_fd_sc_hd__a22o_1
*I *4526:X O *D sky130_fd_sc_hd__or3b_1
*CAP
1 *4532:A2 0.00102732
2 *4526:X 0.00102732
3 *4532:A2 *4507:B 0.000139058
4 *4532:A2 *4530:A2 0.000421298
5 *4532:A2 *4531:B1 7.48667e-05
6 *4532:A2 *4532:B1 7.3664e-05
7 *4532:A2 *4552:A1 0
8 *4532:A2 *4561:A2 0
9 *4532:A2 *4673:A 0.000464898
10 *4532:A2 *150:32 0
11 *4532:A2 *161:80 0
12 *4532:A2 *195:32 0.000107666
13 *4532:A2 *234:16 0
14 *4526:A *4532:A2 2.87867e-05
15 *77:23 *4532:A2 0.00069176
*RES
1 *4526:X *4532:A2 31.495 
*END

*D_NET *88 0.00022134
*CONN
*I *4531:A1 I *D sky130_fd_sc_hd__o22a_1
*I *4527:X O *D sky130_fd_sc_hd__o21a_1
*CAP
1 *4531:A1 5.71149e-05
2 *4527:X 5.71149e-05
3 *4531:A1 *4531:A2 8.65961e-05
4 *4531:A1 *224:14 2.0514e-05
*RES
1 *4527:X *4531:A1 4.34 
*END

*D_NET *89 0.00305647
*CONN
*I *4559:A3 I *D sky130_fd_sc_hd__a32o_1
*I *4529:A2 I *D sky130_fd_sc_hd__o21ai_1
*I *4528:Y O *D sky130_fd_sc_hd__nand2_1
*CAP
1 *4559:A3 0.000322545
2 *4529:A2 0.000104685
3 *4528:Y 0.000271028
4 *89:10 0.000698258
5 *4559:A3 *4534:A 0.000125005
6 *4559:A3 *4560:B1 4.92062e-05
7 *4559:A3 *150:32 2.46089e-05
8 *4559:A3 *161:80 2.30292e-05
9 *4559:A3 *186:45 0.000616046
10 *89:10 *4527:A2 7.1009e-05
11 *89:10 *4534:A 0.000287549
12 *89:10 *161:39 0
13 *89:10 *161:80 0
14 *89:10 *163:75 2.19433e-05
15 *89:10 *224:14 0.000237238
16 *4529:A1 *89:10 4.11198e-05
17 *77:23 *4529:A2 0.000163204
*RES
1 *4528:Y *89:10 9.195 
2 *89:10 *4529:A2 5.085 
3 *89:10 *4559:A3 11.205 
*END

*D_NET *90 0.000555989
*CONN
*I *4531:A2 I *D sky130_fd_sc_hd__o22a_1
*I *4529:Y O *D sky130_fd_sc_hd__o21ai_1
*CAP
1 *4531:A2 0.00010263
2 *4529:Y 0.00010263
3 *4531:A2 *4531:B2 0
4 *4531:A2 *161:39 0.000137563
5 *4531:A2 *224:14 0.00012657
6 *4531:A1 *4531:A2 8.65961e-05
*RES
1 *4529:Y *4531:A2 9.975 
*END

*D_NET *91 0.00103412
*CONN
*I *4531:B1 I *D sky130_fd_sc_hd__o22a_1
*I *4530:X O *D sky130_fd_sc_hd__a32o_1
*CAP
1 *4531:B1 0.000351156
2 *4530:X 0.000351156
3 *4531:B1 *4626:A 0
4 *4531:B1 *163:75 0.000256941
5 *4532:A2 *4531:B1 7.48667e-05
*RES
1 *4530:X *4531:B1 14.46 
*END

*D_NET *92 0.000567573
*CONN
*I *4532:B1 I *D sky130_fd_sc_hd__a22o_1
*I *4531:X O *D sky130_fd_sc_hd__o22a_1
*CAP
1 *4532:B1 0.00021706
2 *4531:X 0.00021706
3 *4532:B1 *4484:B2 0
4 *4532:B1 *4531:B2 5.4256e-05
5 *4532:B1 *4532:B2 5.53249e-06
6 *4532:B1 *4626:A 0
7 *4532:B1 *161:80 0
8 *4532:A2 *4532:B1 7.3664e-05
*RES
1 *4531:X *4532:B1 10.875 
*END

*D_NET *93 0.00173887
*CONN
*I *4535:B1 I *D sky130_fd_sc_hd__a32o_1
*I *4532:X O *D sky130_fd_sc_hd__a22o_1
*CAP
1 *4535:B1 0.000284941
2 *4532:X 0.000284941
3 *4535:B1 *4451:A 4.82863e-05
4 *4535:B1 *4535:A3 1.12459e-05
5 *4535:B1 *4561:A2 0.000445159
6 *4535:B1 *240:8 0.000201508
7 *4535:B1 *240:21 0.000441818
8 *4535:A2 *4535:B1 2.09749e-05
*RES
1 *4532:X *4535:B1 14.7825 
*END

*D_NET *94 0.00635292
*CONN
*I *4534:A I *D sky130_fd_sc_hd__inv_1
*I *4544:B1 I *D sky130_fd_sc_hd__a221o_1
*I *4551:A2 I *D sky130_fd_sc_hd__o2111a_1
*I *4533:Y O *D sky130_fd_sc_hd__nor2_2
*CAP
1 *4534:A 0.000666444
2 *4544:B1 0.000544862
3 *4551:A2 0.000130701
4 *4533:Y 0.00017799
5 *94:23 0.00143393
6 *94:10 0.000531315
7 *4534:A *4484:B2 0
8 *4534:A *4527:A2 5.65627e-05
9 *4534:A *4551:A1 0
10 *4534:A *4561:A2 0
11 *4534:A *151:10 0
12 *4534:A *151:12 0
13 *4544:B1 *4459:A 0.00015537
14 *4544:B1 *4544:C1 8.23457e-05
15 *4544:B1 *158:28 9.98439e-05
16 *4544:B1 *158:43 6.05513e-05
17 *4544:B1 *238:22 0.0008267
18 *4544:B1 *238:38 8.61797e-05
19 *4551:A2 *4551:A1 4.9253e-06
20 *4551:A2 *4551:C1 0.000273878
21 *4551:A2 *173:81 0.000237243
22 *4551:A2 *173:94 5.36407e-05
23 *94:10 *4459:A 0
24 *94:10 *4527:A2 4.75576e-05
25 *94:10 *4550:A2 0.000122325
26 *94:10 *157:68 4.66108e-05
27 *94:23 *4459:A 0
28 *94:23 *4459:B 0
29 *94:23 *4527:A2 0.00022242
30 *4559:A3 *4534:A 0.000125005
31 *67:8 *4534:A 5.39718e-05
32 *67:21 *4534:A 2.4997e-05
33 *89:10 *4534:A 0.000287549
*RES
1 *4533:Y *94:10 6.21 
2 *94:10 *4551:A2 7.515 
3 *94:10 *94:23 4.695 
4 *94:23 *4544:B1 16.5 
5 *94:23 *4534:A 15.9263 
*END

*D_NET *95 0.000411793
*CONN
*I *4535:A3 I *D sky130_fd_sc_hd__a32o_1
*I *4534:Y O *D sky130_fd_sc_hd__inv_1
*CAP
1 *4535:A3 0.000168516
2 *4534:Y 0.000168516
3 *4535:A2 *4535:A3 6.35161e-05
4 *4535:B1 *4535:A3 1.12459e-05
*RES
1 *4534:Y *4535:A3 5.9075 
*END

*D_NET *96 0.000764366
*CONN
*I *4539:A2 I *D sky130_fd_sc_hd__a211o_1
*I *4537:X O *D sky130_fd_sc_hd__a211o_1
*CAP
1 *4539:A2 0.00015634
2 *4537:X 0.00015634
3 *4539:A2 *4537:A2 3.00381e-05
4 *4539:A2 *4537:B1 2.33136e-05
5 *4539:A2 *4538:A1 3.86607e-05
6 *4539:A2 *4538:B1 6.65612e-05
7 *4539:A2 *157:21 6.55328e-05
8 *4539:A2 *157:36 3.76596e-05
9 *4539:A2 *194:46 0.000132842
10 *4539:A2 *194:74 5.70778e-05
*RES
1 *4537:X *4539:A2 11.325 
*END

*D_NET *97 0.000616621
*CONN
*I *4539:B1 I *D sky130_fd_sc_hd__a211o_1
*I *4538:Y O *D sky130_fd_sc_hd__a2111oi_1
*CAP
1 *4539:B1 0.000154124
2 *4538:Y 0.000154124
3 *4539:B1 *4538:B1 0.000134509
4 *4539:B1 *4538:C1 4.9253e-06
5 *4539:B1 *4538:D1 4.82863e-05
6 *4539:B1 *237:16 4.82919e-05
7 *83:16 *4539:B1 7.23602e-05
*RES
1 *4538:Y *4539:B1 9.975 
*END

*D_NET *98 0.00284527
*CONN
*I *4543:A2 I *D sky130_fd_sc_hd__a31o_1
*I *4539:X O *D sky130_fd_sc_hd__a211o_1
*CAP
1 *4543:A2 0.000896807
2 *4539:X 0.000896807
3 *4543:A2 *4505:A 0.000124895
4 *4543:A2 *4522:C 0.000199833
5 *4543:A2 *4540:B1 3.47837e-05
6 *4543:A2 *4540:B2 0.000421021
7 *4543:A2 *4543:A1 3.00381e-05
8 *4543:A2 *149:28 0.000241089
9 *4543:A2 *231:41 0
*RES
1 *4539:X *4543:A2 22.005 
*END

*D_NET *99 0.000111545
*CONN
*I *4541:B I *D sky130_fd_sc_hd__nand2_1
*I *4540:X O *D sky130_fd_sc_hd__o221a_1
*CAP
1 *4541:B 5.81042e-06
2 *4540:X 5.81042e-06
3 *4541:B *4540:A2 4.99619e-05
4 *4541:B *194:38 4.99619e-05
*RES
1 *4540:X *4541:B 3.65 
*END

*D_NET *100 0.000717259
*CONN
*I *4543:A3 I *D sky130_fd_sc_hd__a31o_1
*I *4541:Y O *D sky130_fd_sc_hd__nand2_1
*CAP
1 *4543:A3 0.000207609
2 *4541:Y 0.000207609
3 *4543:A3 *4540:A1 4.82919e-05
4 *4543:A3 *4540:A2 8.34281e-06
5 *4543:A3 *4570:A2 0.000116158
6 *4543:A3 *194:38 0.000123225
7 *4543:A3 *220:22 0
8 *4543:A3 *220:28 6.02396e-06
*RES
1 *4541:Y *4543:A3 10.41 
*END

*D_NET *101 0.000417578
*CONN
*I *4543:B1 I *D sky130_fd_sc_hd__a31o_1
*I *4542:X O *D sky130_fd_sc_hd__o311a_1
*CAP
1 *4543:B1 0.000125687
2 *4542:X 0.000125687
3 *4543:B1 *4465:A 1.1392e-05
4 *4543:B1 *4570:A2 0
5 *4543:B1 *149:28 3.86607e-05
6 *4543:B1 *220:22 0.000116151
*RES
1 *4542:X *4543:B1 9.375 
*END

*D_NET *102 0.00289895
*CONN
*I *4548:B1 I *D sky130_fd_sc_hd__a32o_1
*I *4543:X O *D sky130_fd_sc_hd__a31o_1
*CAP
1 *4548:B1 0.000587168
2 *4543:X 0.000587168
3 *4548:B1 *4456:A 9.9535e-05
4 *4548:B1 *4466:C1 0.000199221
5 *4548:B1 *4488:A 0
6 *4548:B1 *4543:A1 4.92062e-05
7 *4548:B1 *4544:A1 0.000273008
8 *4548:B1 *4547:A1 0.000186627
9 *4548:B1 *4548:A1 2.91343e-05
10 *4548:B1 *4570:A1 0.000152821
11 *4548:B1 *4570:A2 0.000293733
12 *4548:B1 *149:28 0.000139245
13 *4548:B1 *155:26 9.61052e-05
14 *4548:B1 *164:19 8.78892e-05
15 *4548:B1 *164:32 3.39095e-05
16 *4548:B1 *179:12 8.41833e-05
17 *4548:B1 *224:28 0
*RES
1 *4543:X *4548:B1 23.6775 
*END

*D_NET *103 0.000643769
*CONN
*I *4548:A2 I *D sky130_fd_sc_hd__a32o_1
*I *4544:X O *D sky130_fd_sc_hd__a221o_1
*CAP
1 *4548:A2 0.000171546
2 *4544:X 0.000171546
3 *4548:A2 *4547:A1 0.00027064
4 *4548:A2 *4575:B1 0
5 *4548:A2 *238:38 3.00381e-05
*RES
1 *4544:X *4548:A2 10.815 
*END

*D_NET *104 0.00143997
*CONN
*I *4574:B1 I *D sky130_fd_sc_hd__a22o_1
*I *4578:C I *D sky130_fd_sc_hd__and3_1
*I *4545:Y O *D sky130_fd_sc_hd__nand2_1
*CAP
1 *4574:B1 0.000150917
2 *4578:C 0.000334645
3 *4545:Y 0
4 *104:4 0.000485562
5 *4574:B1 *4545:B 2.19562e-06
6 *4574:B1 *4574:B2 7.58685e-05
7 *4574:B1 *4577:B1 6.69608e-06
8 *4574:B1 *163:30 4.77757e-05
9 *4578:C *4574:B2 0.00017873
10 *4578:C *4576:A2 1.82476e-05
11 *4578:C *4579:S 5.49479e-05
12 *4578:C *238:55 6.02202e-05
13 *4503:A *4578:C 2.11901e-05
14 *64:71 *4578:C 2.97004e-06
*RES
1 *4545:Y *104:4 1.6 
2 *104:4 *4578:C 10.865 
3 *104:4 *4574:B1 4.06 
*END

*D_NET *105 0.00761338
*CONN
*I *4564:A2_N I *D sky130_fd_sc_hd__a2bb2o_1
*I *4558:B I *D sky130_fd_sc_hd__nor2_1
*I *4547:B1 I *D sky130_fd_sc_hd__a211o_1
*I *4568:B I *D sky130_fd_sc_hd__or3_1
*I *4546:X O *D sky130_fd_sc_hd__and4_4
*CAP
1 *4564:A2_N 0.000287284
2 *4558:B 5.61199e-05
3 *4547:B1 1.19549e-05
4 *4568:B 0
5 *4546:X 0.000174992
6 *105:35 0.000707475
7 *105:31 0.00180993
8 *105:14 0.00105824
9 *4547:B1 *4547:A1 5.4155e-06
10 *4547:B1 *4547:C1 9.53428e-06
11 *4558:B *4547:C1 9.53428e-06
12 *4558:B *4558:A 3.26889e-05
13 *4558:B *161:80 1.56428e-05
14 *4558:B *161:86 1.34503e-05
15 *4558:B *224:80 1.08758e-05
16 *4564:A2_N *4564:A1_N 8.65905e-05
17 *4564:A2_N *4564:B2 8.65905e-05
18 *4564:A2_N *4577:A1 0
19 *105:14 *158:28 4.76659e-05
20 *105:14 *229:33 5.03424e-05
21 *105:14 *234:100 0.000145298
22 *105:31 *4568:C 5.11148e-06
23 *105:31 *4572:A1 0.00036929
24 *105:31 *4575:A2 0.000284281
25 *105:31 *158:28 1.1561e-05
26 *105:31 *164:6 8.52883e-05
27 *105:31 *164:19 0.000566546
28 *105:31 *238:38 2.16306e-05
29 *105:31 *238:55 7.23602e-05
30 *105:35 *4547:A1 6.71882e-05
31 *105:35 *161:86 0.000390577
32 *4503:B *105:31 0.000473642
33 *66:10 *105:31 9.37731e-05
34 *66:23 *4564:A2_N 0.00011686
35 *66:23 *105:31 0.000435648
*RES
1 *4546:X *105:14 7.02 
2 *105:14 *4568:B 3.6 
3 *105:14 *105:31 23.44 
4 *105:31 *105:35 12.8 
5 *105:35 *4547:B1 1.96 
6 *105:35 *4558:B 2.755 
7 *105:31 *4564:A2_N 8.88 
*END

*D_NET *106 0.000476648
*CONN
*I *4548:A3 I *D sky130_fd_sc_hd__a32o_1
*I *4547:X O *D sky130_fd_sc_hd__a211o_1
*CAP
1 *4548:A3 0.000121528
2 *4547:X 0.000121528
3 *4548:A3 *4547:A1 7.63125e-05
4 *4548:A3 *4549:A2 7.23602e-05
5 *4548:A3 *161:86 8.49205e-05
*RES
1 *4547:X *4548:A3 9.63 
*END

*D_NET *107 0.00149436
*CONN
*I *4549:A2 I *D sky130_fd_sc_hd__a21o_1
*I *4548:X O *D sky130_fd_sc_hd__a32o_1
*CAP
1 *4549:A2 0.000581864
2 *4548:X 0.000581864
3 *4549:A2 *4488:B 0
4 *4549:A2 *4547:A1 1.73877e-05
5 *4549:A2 *186:57 0
6 *4549:A2 *186:61 3.00381e-05
7 *4547:A2 *4549:A2 0
8 *4548:A3 *4549:A2 7.23602e-05
9 *64:63 *4549:A2 0.000210846
*RES
1 *4548:X *4549:A2 17.445 
*END

*D_NET *108 0.000248105
*CONN
*I *4551:B1 I *D sky130_fd_sc_hd__o2111a_1
*I *4550:X O *D sky130_fd_sc_hd__a211o_1
*CAP
1 *4551:B1 7.86845e-05
2 *4550:X 7.86845e-05
3 *4551:B1 *4556:B1 7.23602e-05
4 *4551:B1 *155:24 1.83756e-05
5 *4551:B1 *158:28 0
*RES
1 *4550:X *4551:B1 8.52 
*END

*D_NET *109 0.000541102
*CONN
*I *4556:C1 I *D sky130_fd_sc_hd__a211o_1
*I *4551:X O *D sky130_fd_sc_hd__o2111a_1
*CAP
1 *4556:C1 0.000133922
2 *4551:X 0.000133922
3 *4556:C1 *4459:A 7.63204e-05
4 *4556:C1 *4556:B1 0.000140912
5 *4556:C1 *173:81 4.43682e-05
6 *4556:C1 *173:94 1.16578e-05
*RES
1 *4551:X *4556:C1 9.975 
*END

*D_NET *110 0.00338884
*CONN
*I *4556:A2 I *D sky130_fd_sc_hd__a211o_1
*I *4552:X O *D sky130_fd_sc_hd__a32o_1
*CAP
1 *4556:A2 0.00102706
2 *4552:X 0.00102706
3 *4556:A2 *4527:A2 0.00011852
4 *4556:A2 *4551:C1 2.19562e-06
5 *4556:A2 *4556:A1 9.53428e-06
6 *4556:A2 *4624:A 0.000159108
7 *4556:A2 *143:33 0.00042195
8 *4556:A2 *143:37 0.000163199
9 *4556:A2 *173:81 1.47256e-05
10 *4556:A2 *179:38 2.75229e-05
11 *4556:A2 *179:47 0.000254505
12 *4556:A2 *238:10 4.66108e-05
13 *4529:A1 *4556:A2 0.000116853
*RES
1 *4552:X *4556:A2 23.295 
*END

*D_NET *111 0.000510108
*CONN
*I *4555:A1 I *D sky130_fd_sc_hd__a21oi_1
*I *4553:X O *D sky130_fd_sc_hd__or3b_1
*CAP
1 *4555:A1 0.00017512
2 *4553:X 0.00017512
3 *4555:A1 *157:47 0
4 *4555:A1 *167:26 8.5841e-05
5 *4555:A1 *231:41 7.4027e-05
*RES
1 *4553:X *4555:A1 9.9 
*END

*D_NET *112 0.00573457
*CONN
*I *4555:A2 I *D sky130_fd_sc_hd__a21oi_1
*I *4554:X O *D sky130_fd_sc_hd__or3_1
*CAP
1 *4555:A2 0.0014656
2 *4554:X 0.0014656
3 *4555:A2 *4476:A 0.000111285
4 *4555:A2 *4525:B1 0.000231217
5 *4555:A2 *4554:B 0.000120655
6 *4555:A2 *173:36 0.000274654
7 *4555:A2 *181:38 0.000122325
8 *4555:A2 *181:46 0.00154198
9 *4555:A2 *219:38 4.21757e-05
10 *4555:A2 *230:50 0.000345347
11 *4555:B1 *4555:A2 1.37328e-05
*RES
1 *4554:X *4555:A2 32.21 
*END

*D_NET *113 0.00100607
*CONN
*I *4556:B1 I *D sky130_fd_sc_hd__a211o_1
*I *4555:Y O *D sky130_fd_sc_hd__a21oi_1
*CAP
1 *4556:B1 0.000273925
2 *4555:Y 0.000273925
3 *4556:B1 *4459:A 7.97734e-05
4 *4556:B1 *4551:A1 6.14689e-05
5 *4556:B1 *158:28 0
6 *4556:B1 *167:41 0
7 *4556:B1 *231:41 7.3664e-05
8 *4551:B1 *4556:B1 7.23602e-05
9 *4555:B1 *4556:B1 3.00381e-05
10 *4556:C1 *4556:B1 0.000140912
*RES
1 *4555:Y *4556:B1 13.365 
*END

*D_NET *114 0.00171967
*CONN
*I *4560:A2 I *D sky130_fd_sc_hd__a22o_1
*I *4556:X O *D sky130_fd_sc_hd__a211o_1
*CAP
1 *4560:A2 0.000521551
2 *4556:X 0.000521551
3 *4560:A2 *4551:A1 9.42224e-05
4 *4560:A2 *4557:A2 0.00015212
5 *4560:A2 *151:10 6.99988e-05
6 *4560:A2 *158:28 6.55328e-05
7 *4560:A2 *159:10 0.000138551
8 *4560:A2 *167:41 0
9 *4560:A2 *186:45 6.95505e-05
10 *4560:A2 *188:67 8.65905e-05
*RES
1 *4556:X *4560:A2 17.535 
*END

*D_NET *115 0.000940241
*CONN
*I *4559:B1 I *D sky130_fd_sc_hd__a32o_1
*I *4557:Y O *D sky130_fd_sc_hd__o21ai_1
*CAP
1 *4559:B1 0.000273185
2 *4557:Y 0.000273185
3 *4559:B1 *4548:A1 0
4 *4559:B1 *4559:A1 2.09749e-05
5 *4559:B1 *161:80 1.12459e-05
6 *4559:B1 *167:41 7.44453e-05
7 *4547:A2 *4559:B1 0.000238919
8 *77:23 *4559:B1 4.82863e-05
*RES
1 *4557:Y *4559:B1 11.5575 
*END

*D_NET *116 0.000620523
*CONN
*I *4559:B2 I *D sky130_fd_sc_hd__a32o_1
*I *4558:Y O *D sky130_fd_sc_hd__nor2_1
*CAP
1 *4559:B2 4.7303e-05
2 *4558:Y 4.7303e-05
3 *4559:B2 *4558:A 4.82919e-05
4 *4559:B2 *4559:A1 0.000161204
5 *4559:B2 *161:80 0.000316421
*RES
1 *4558:Y *4559:B2 6.065 
*END

*D_NET *117 0.000421911
*CONN
*I *4560:B1 I *D sky130_fd_sc_hd__a22o_1
*I *4559:X O *D sky130_fd_sc_hd__a32o_1
*CAP
1 *4560:B1 9.12597e-05
2 *4559:X 9.12597e-05
3 *4560:B1 *4565:A 9.47454e-05
4 *4560:B1 *186:45 9.54399e-05
5 *4559:A3 *4560:B1 4.92062e-05
*RES
1 *4559:X *4560:B1 9.12 
*END

*D_NET *118 0.00161058
*CONN
*I *4561:B1 I *D sky130_fd_sc_hd__a32o_1
*I *4560:X O *D sky130_fd_sc_hd__a22o_1
*CAP
1 *4561:B1 0.000634944
2 *4560:X 0.000634944
3 *64:45 *4561:B1 2.42747e-05
4 *64:51 *4561:B1 0.000316421
*RES
1 *4560:X *4561:B1 17.8275 
*END

*D_NET *119 0.000465535
*CONN
*I *4563:A0 I *D sky130_fd_sc_hd__mux2_1
*I *4562:X O *D sky130_fd_sc_hd__or3_1
*CAP
1 *4563:A0 6.59551e-05
2 *4562:X 6.59551e-05
3 *4563:A0 *4515:B1 8.53113e-06
4 *4563:A0 *4563:A1 4.66108e-05
5 *4563:A0 *169:16 0.000139245
6 *4563:A0 *232:37 0.000139238
*RES
1 *4562:X *4563:A0 9.285 
*END

*D_NET *120 0.0104843
*CONN
*I *4564:B1 I *D sky130_fd_sc_hd__a2bb2o_1
*I *4563:X O *D sky130_fd_sc_hd__mux2_1
*CAP
1 *4564:B1 0.000122301
2 *4563:X 0.0011491
3 *120:16 0.0012714
4 *4564:B1 *4489:A 2.623e-05
5 *4564:B1 *4564:A1_N 4.15527e-05
6 *4564:B1 *4577:A1 1.31928e-05
7 *4564:B1 *188:10 0.000817843
8 *4564:B1 *215:10 0.000966698
9 *120:16 *4504:A 0.000267274
10 *120:16 *4519:A1 3.57349e-05
11 *120:16 *4563:A1 0.000278117
12 *120:16 *187:14 3.83194e-05
13 *120:16 *188:10 5.94962e-05
14 *120:16 *188:82 0.000955661
15 *120:16 *215:10 0.00349428
16 *4504:B *120:16 0.000947102
*RES
1 *4563:X *120:16 41.635 
2 *120:16 *4564:B1 10.33 
*END

*D_NET *121 0.00102107
*CONN
*I *4565:B I *D sky130_fd_sc_hd__or4b_1
*I *4566:A2 I *D sky130_fd_sc_hd__a21bo_1
*I *4564:X O *D sky130_fd_sc_hd__a2bb2o_1
*CAP
1 *4565:B 4.426e-05
2 *4566:A2 0.000240005
3 *4564:X 5.12132e-05
4 *121:6 0.000335478
5 *4565:B *4564:B2 7.01303e-05
6 *4566:A2 *215:10 0.000194696
7 *121:6 *215:10 8.52883e-05
*RES
1 *4564:X *121:6 2.395 
2 *121:6 *4566:A2 4.735 
3 *121:6 *4565:B 6.47 
*END

*D_NET *122 0.000579725
*CONN
*I *4566:B1_N I *D sky130_fd_sc_hd__a21bo_1
*I *4565:X O *D sky130_fd_sc_hd__or4b_1
*CAP
1 *4566:B1_N 0.000265303
2 *4565:X 0.000265303
3 *4566:B1_N *4577:A1 0
4 *64:71 *4566:B1_N 4.91189e-05
*RES
1 *4565:X *4566:B1_N 10.755 
*END

*D_NET *123 0.00117062
*CONN
*I *4568:C I *D sky130_fd_sc_hd__or3_1
*I *4567:Y O *D sky130_fd_sc_hd__a21oi_1
*CAP
1 *4568:C 0.000191869
2 *4567:Y 0.000191869
3 *4568:C *4567:A1 9.14049e-05
4 *4568:C *4574:B2 5.53249e-06
5 *4568:C *158:28 0.000139032
6 *4568:C *164:6 8.40213e-05
7 *4568:C *218:41 2.03321e-05
8 *4568:C *218:52 1.34361e-05
9 *4568:C *234:63 4.13171e-05
10 *4568:C *234:74 5.65627e-05
11 *4568:C *234:100 2.79004e-05
12 *4568:C *238:55 1.52184e-05
13 *4568:C *238:61 0.000287015
14 *105:31 *4568:C 5.11148e-06
*RES
1 *4567:Y *4568:C 13.035 
*END

*D_NET *124 0.00101209
*CONN
*I *4572:A3 I *D sky130_fd_sc_hd__a311o_1
*I *4569:A3 I *D sky130_fd_sc_hd__a31oi_1
*I *4568:X O *D sky130_fd_sc_hd__or3_1
*CAP
1 *4572:A3 0.000130204
2 *4569:A3 0
3 *4568:X 0.000147724
4 *124:12 0.000277928
5 *4572:A3 *4569:A1 4.94457e-05
6 *4572:A3 *4572:A2 3.13354e-05
7 *4572:A3 *4572:B1 6.24639e-05
8 *4572:A3 *4577:B1 5.84662e-05
9 *4572:A3 *229:33 2.75145e-05
10 *4572:A3 *234:100 2.59295e-05
11 *124:12 *158:28 8.49218e-05
12 *124:12 *234:114 0.000116158
13 *4569:B1 *124:12 0
*RES
1 *4568:X *124:12 8.03 
2 *124:12 *4569:A3 1.6 
3 *124:12 *4572:A3 4.945 
*END

*D_NET *125 0.000663456
*CONN
*I *4572:B1 I *D sky130_fd_sc_hd__a311o_1
*I *4569:Y O *D sky130_fd_sc_hd__a31oi_1
*CAP
1 *4572:B1 0.000270704
2 *4569:Y 0.000270704
3 *4572:B1 *4572:A1 2.75229e-05
4 *4572:B1 *4572:A2 3.20603e-05
5 *4572:A3 *4572:B1 6.24639e-05
*RES
1 *4569:Y *4572:B1 6.68 
*END

*D_NET *126 0.000424872
*CONN
*I *4571:B1 I *D sky130_fd_sc_hd__o211a_1
*I *4570:X O *D sky130_fd_sc_hd__a211o_1
*CAP
1 *4571:B1 0.000106164
2 *4570:X 0.000106164
3 *4571:B1 *4542:B1 5.53249e-06
4 *4571:B1 *4543:A1 0.000117832
5 *4571:B1 *179:12 5.7344e-05
6 *4555:B1 *4571:B1 3.1835e-05
*RES
1 *4570:X *4571:B1 9.375 
*END

*D_NET *127 0.00133967
*CONN
*I *4572:C1 I *D sky130_fd_sc_hd__a311o_1
*I *4571:X O *D sky130_fd_sc_hd__o211a_1
*CAP
1 *4572:C1 0.000349462
2 *4571:X 0.000349462
3 *4572:C1 *4543:A1 0
4 *4572:C1 *4572:A2 2.30292e-05
5 *4555:B1 *4572:C1 0.000617716
*RES
1 *4571:X *4572:C1 14.55 
*END

*D_NET *128 0.002833
*CONN
*I *4577:B1 I *D sky130_fd_sc_hd__a32o_1
*I *4572:X O *D sky130_fd_sc_hd__a311o_1
*CAP
1 *4577:B1 0.000754695
2 *4572:X 0.000754695
3 *4577:B1 *4569:A1 6.69608e-06
4 *4577:B1 *4576:A2 4.1652e-06
5 *4577:B1 *4577:A3 0.000104933
6 *4577:B1 *163:30 0.000105344
7 *4577:B1 *163:43 0.00015264
8 *4577:B1 *177:26 0.00011099
9 *4577:B1 *234:114 0.00052712
10 *4577:B1 *238:40 8.185e-05
11 *4503:A *4577:B1 0.000105844
12 *4569:B1 *4577:B1 5.88634e-05
13 *4572:A3 *4577:B1 5.84662e-05
14 *4574:B1 *4577:B1 6.69608e-06
*RES
1 *4572:X *4577:B1 26.4025 
*END

*D_NET *129 0.000927578
*CONN
*I *4575:A1 I *D sky130_fd_sc_hd__a21o_1
*I *4573:Y O *D sky130_fd_sc_hd__nand2_1
*CAP
1 *4575:A1 0.000205976
2 *4573:Y 0.000205976
3 *4575:A1 *4572:A1 5.16418e-05
4 *4575:A1 *4575:B1 0.000155491
5 *4575:A1 *4576:C1 4.66108e-05
6 *4575:A1 *161:86 0.000104287
7 *66:23 *4575:A1 0.000157595
*RES
1 *4573:Y *4575:A1 11.025 
*END

*D_NET *130 0.000955551
*CONN
*I *4575:A2 I *D sky130_fd_sc_hd__a21o_1
*I *4574:X O *D sky130_fd_sc_hd__a22o_1
*CAP
1 *4575:A2 0.000232939
2 *4574:X 0.000232939
3 *4575:A2 *4576:A2 4.94326e-05
4 *4575:A2 *4577:B2 0
5 *4575:A2 *163:43 7.98745e-06
6 *4575:A2 *238:38 5.83373e-05
7 *4503:A *4575:A2 3.96737e-05
8 *66:10 *4575:A2 4.99619e-05
9 *105:31 *4575:A2 0.000284281
*RES
1 *4574:X *4575:A2 11.76 
*END

*D_NET *131 0.000706397
*CONN
*I *4577:A2 I *D sky130_fd_sc_hd__a32o_1
*I *4575:X O *D sky130_fd_sc_hd__a21o_1
*CAP
1 *4577:A2 0.000209887
2 *4575:X 0.000209887
3 *4577:A2 *4576:A2 0.000193553
4 *4577:A2 *4577:A1 9.30717e-05
*RES
1 *4575:X *4577:A2 10.155 
*END

*D_NET *132 0.000557302
*CONN
*I *4577:A3 I *D sky130_fd_sc_hd__a32o_1
*I *4576:X O *D sky130_fd_sc_hd__a311o_1
*CAP
1 *4577:A3 0.000198574
2 *4576:X 0.000198574
3 *4577:A3 *4578:A 0
4 *4577:A3 *238:40 5.52212e-05
5 *4577:B1 *4577:A3 0.000104933
*RES
1 *4576:X *4577:A3 5.99 
*END

*D_NET *133 0.00169212
*CONN
*I *4579:S I *D sky130_fd_sc_hd__mux2_4
*I *4577:X O *D sky130_fd_sc_hd__a32o_1
*CAP
1 *4579:S 0.000561173
2 *4577:X 0.000561173
3 *4579:S *4578:A 1.83756e-05
4 *4579:S *238:40 6.02297e-05
5 *4503:A *4579:S 6.29305e-05
6 *4578:C *4579:S 5.49479e-05
7 *4579:A1 *4579:S 0.000373287
*RES
1 *4577:X *4579:S 10.82 
*END

*D_NET *134 0.000638183
*CONN
*I *4579:A0 I *D sky130_fd_sc_hd__mux2_4
*I *4578:X O *D sky130_fd_sc_hd__and3_1
*CAP
1 *4579:A0 0.000132124
2 *4578:X 0.000132124
3 *4503:A *4579:A0 5.58436e-05
4 *4579:A1 *4579:A0 0.000318091
*RES
1 *4578:X *4579:A0 6.68 
*END

*D_NET *135 0.0023645
*CONN
*I *4585:B I *D sky130_fd_sc_hd__nor2_1
*I *4584:B I *D sky130_fd_sc_hd__and2_4
*I *4583:A I *D sky130_fd_sc_hd__nor2_1
*I *4581:X O *D sky130_fd_sc_hd__and3_4
*CAP
1 *4585:B 0
2 *4584:B 0.000102977
3 *4583:A 0.000358479
4 *4581:X 0
5 *135:19 0.000597884
6 *135:4 0.000853386
7 *4583:A *4581:C 7.91708e-05
8 *4583:A *4583:B 6.40897e-05
9 *4583:A *4596:A 0.000214014
10 *4584:B *4584:A 8.89673e-05
11 *135:19 *4584:A 5.53249e-06
12 *135:19 *4603:CLK 0
13 *135:19 *4605:CLK 0
14 *4610:A *4584:B 0
15 *4610:A *135:19 0
*RES
1 *4581:X *135:4 1.6 
2 *135:4 *4583:A 7.93 
3 *135:4 *135:19 10.055 
4 *135:19 *4584:B 5.49 
5 *135:19 *4585:B 3.6 
*END

*D_NET *136 0.00113586
*CONN
*I *4583:B I *D sky130_fd_sc_hd__nor2_1
*I *4582:Y O *D sky130_fd_sc_hd__a21oi_1
*CAP
1 *4583:B 0.000218528
2 *4582:Y 0.000218528
3 *4583:B *4443:A1 0.000148968
4 *4583:B *4581:C 0.000273008
5 *4583:B *4596:A 9.62307e-05
6 *4583:A *4583:B 6.40897e-05
7 *4604:D *4583:B 4.99619e-05
8 *4604:RESET_B *4583:B 6.65504e-05
*RES
1 *4582:Y *4583:B 13.245 
*END

*D_NET *137 0.00263845
*CONN
*I *4586:A I *D sky130_fd_sc_hd__nor2_1
*I *4587:B I *D sky130_fd_sc_hd__xor2_1
*I *4588:C I *D sky130_fd_sc_hd__and3_4
*I *4589:A2 I *D sky130_fd_sc_hd__a21oi_1
*I *4584:X O *D sky130_fd_sc_hd__and2_4
*CAP
1 *4586:A 9.09793e-05
2 *4587:B 0
3 *4588:C 6.46677e-05
4 *4589:A2 9.84918e-05
5 *4584:X 0
6 *137:12 0.000332264
7 *137:8 0.000631436
8 *137:4 0.000553311
9 *4588:C *4589:B1 0.000160635
10 *4589:A2 *4588:A 3.42871e-05
11 *4589:A2 *4589:B1 8.65905e-05
12 *4589:A2 *4590:B 1.83756e-05
13 *4589:A2 *203:46 2.11084e-05
14 *137:8 *4584:A 2.97004e-06
15 *137:8 *4587:A 0
16 *137:8 *4606:CLK 0.000133075
17 *137:8 *208:10 5.16348e-05
18 *137:12 *208:10 0.000337517
19 *4605:D *4586:A 2.11084e-05
20 *4628:A *137:8 0
*RES
1 *4584:X *137:4 1.6 
2 *137:4 *137:8 10.265 
3 *137:8 *137:12 5.93 
4 *137:12 *4589:A2 4.255 
5 *137:12 *4588:C 3.085 
6 *137:8 *4587:B 3.6 
7 *137:4 *4586:A 3.1 
*END

*D_NET *138 0.000589206
*CONN
*I *4586:B I *D sky130_fd_sc_hd__nor2_1
*I *4585:Y O *D sky130_fd_sc_hd__nor2_1
*CAP
1 *4586:B 0.000226332
2 *4585:Y 0.000226332
3 *4586:B *4443:A0 4.82863e-05
4 *4586:B *4584:A 0
5 *4586:B *202:12 8.82557e-05
6 *4605:D *4586:B 0
7 *4628:A *4586:B 0
*RES
1 *4585:Y *4586:B 10.41 
*END

*D_NET *139 0.00263827
*CONN
*I *4590:A I *D sky130_fd_sc_hd__nor2_1
*I *4592:B I *D sky130_fd_sc_hd__or2_1
*I *4591:B I *D sky130_fd_sc_hd__nand2_1
*I *4588:X O *D sky130_fd_sc_hd__and3_4
*CAP
1 *4590:A 0
2 *4592:B 0
3 *4591:B 0.000165179
4 *4588:X 8.66681e-05
5 *139:28 0.000980474
6 *139:12 0.000901963
7 *4591:B *4591:A 9.66103e-05
8 *4591:B *242:20 2.50702e-05
9 *139:12 *208:10 0.000139245
10 *139:28 *4485:B 0.000127408
11 *139:28 *205:8 5.53249e-06
12 *4607:D *139:12 6.18292e-05
13 *4607:D *139:28 4.82863e-05
14 *4628:A *139:12 0
*RES
1 *4588:X *139:12 7.685 
2 *139:12 *139:28 17.755 
3 *139:28 *4591:B 4.615 
4 *139:28 *4592:B 1.6 
5 *139:12 *4590:A 1.6 
*END

*D_NET *140 0.000327255
*CONN
*I *4590:B I *D sky130_fd_sc_hd__nor2_1
*I *4589:Y O *D sky130_fd_sc_hd__a21oi_1
*CAP
1 *4590:B 0.000114959
2 *4589:Y 0.000114959
3 *4590:B *208:10 7.89611e-05
4 *4589:A2 *4590:B 1.83756e-05
*RES
1 *4589:Y *4590:B 9.285 
*END

*D_NET *141 0.0018392
*CONN
*I *4593:A I *D sky130_fd_sc_hd__and2_1
*I *4594:B I *D sky130_fd_sc_hd__xnor2_1
*I *4591:Y O *D sky130_fd_sc_hd__nand2_1
*CAP
1 *4593:A 0
2 *4594:B 0.0007474
3 *4591:Y 0.000140423
4 *141:10 0.000887823
5 *4594:B *4594:A 4.82863e-05
6 *4594:B *205:8 0
7 *141:10 *4591:A 4.9253e-06
8 *141:10 *4593:B 0
9 *141:10 *205:8 0
10 *141:10 *242:20 1.03423e-05
*RES
1 *4591:Y *141:10 5.685 
2 *141:10 *4594:B 14.91 
3 *141:10 *4593:A 3.6 
*END

*D_NET *142 0.000317601
*CONN
*I *4593:B I *D sky130_fd_sc_hd__and2_1
*I *4592:X O *D sky130_fd_sc_hd__or2_1
*CAP
1 *4593:B 0.000103044
2 *4592:X 0.000103044
3 *4593:B *4609:CLK 4.27982e-05
4 *4593:B *205:8 6.28843e-05
5 *4608:D *4593:B 5.83121e-06
6 *141:10 *4593:B 0
*RES
1 *4592:X *4593:B 9.375 
*END

*D_NET *143 0.0135466
*CONN
*I *4626:A I *D sky130_fd_sc_hd__buf_1
*I *4623:A I *D sky130_fd_sc_hd__clkbuf_1
*I *4624:A I *D sky130_fd_sc_hd__buf_1
*I *4625:A I *D sky130_fd_sc_hd__clkbuf_1
*I *4443:X O *D sky130_fd_sc_hd__mux2_8
*CAP
1 *4626:A 0.000605356
2 *4623:A 0.000168134
3 *4624:A 7.43327e-05
4 *4625:A 0
5 *4443:X 0.00204704
6 *143:37 0.000306803
7 *143:33 0.0021136
8 *143:16 0.00349094
9 *4623:A *4644:A 0
10 *4623:A *155:20 4.23245e-05
11 *4623:A *157:68 2.05056e-05
12 *4623:A *161:58 0
13 *4623:A *173:81 4.06489e-05
14 *4624:A *157:68 9.07793e-05
15 *4624:A *161:58 0.000238137
16 *4626:A *4484:B2 0.000222119
17 *4626:A *4524:B1 0
18 *4626:A *4531:B2 0
19 *4626:A *195:32 0
20 *4626:A *224:14 0
21 *143:16 *4461:A2 0
22 *143:16 *4473:A1 0
23 *143:16 *4473:S 0
24 *143:16 *4501:A2 0.000237243
25 *143:16 *4612:A 0
26 *143:16 *233:18 0
27 *143:16 *241:63 0.000203509
28 *143:16 *241:76 0
29 *143:16 *241:97 8.71001e-05
30 *143:33 *4510:A1 3.87788e-05
31 *143:33 *4510:A2 0.000340387
32 *143:33 *4552:A3 0.000415929
33 *143:33 *4671:A 0.000138799
34 *143:33 *157:68 0.000150852
35 *143:33 *173:63 0.000366471
36 *143:33 *219:8 1.17409e-05
37 *143:33 *239:8 8.65961e-05
38 *143:37 *157:68 3.83995e-05
39 *4501:B1 *143:16 0.000126732
40 *4512:A3 *143:33 0.000457459
41 *4512:B1 *143:33 0.000203804
42 *4514:A2_N *143:33 0.000351268
43 *4531:B1 *4626:A 0
44 *4532:B1 *4626:A 0
45 *4556:A2 *4624:A 0.000159108
46 *4556:A2 *143:33 0.00042195
47 *4556:A2 *143:37 0.000163199
48 *64:20 *143:16 8.65961e-05
*RES
1 *4443:X *143:16 38.705 
2 *143:16 *4625:A 1.6 
3 *143:16 *143:33 30.96 
4 *143:33 *143:37 2.1 
5 *143:37 *4624:A 5.155 
6 *143:37 *4623:A 8.39 
7 *143:33 *4626:A 15.65 
*END

*D_NET *144 0.0033769
*CONN
*I *4471:A2 I *D sky130_fd_sc_hd__a41o_1
*I *4509:A I *D sky130_fd_sc_hd__and3_1
*I *4449:A I *D sky130_fd_sc_hd__and3_4
*I *4455:A1 I *D sky130_fd_sc_hd__a31oi_4
*I *4444:Y O *D sky130_fd_sc_hd__nand2_2
*CAP
1 *4471:A2 0.000233032
2 *4509:A 4.87699e-05
3 *4449:A 0
4 *4455:A1 0.000245697
5 *4444:Y 0.000144542
6 *144:36 0.000619406
7 *144:10 0.000626085
8 *144:8 0.000862533
9 *4455:A1 *4455:A2 0
10 *4455:A1 *4455:A3 0.000210733
11 *4471:A2 *4471:A3 0.000238919
12 *4471:A2 *4614:A 2.30292e-05
13 *4471:A2 *145:16 9.37731e-05
14 *4471:A2 *230:24 0
15 *4509:A *4509:B 2.77183e-05
16 *144:36 *4509:B 2.65814e-06
17 *64:20 *144:8 0
18 *64:20 *144:10 0
*RES
1 *4444:Y *144:8 6 
2 *144:8 *144:10 5.715 
3 *144:10 *4455:A1 8.04 
4 *144:10 *4449:A 3.6 
5 *144:8 *144:36 6.59 
6 *144:36 *4509:A 2.395 
7 *144:36 *4471:A2 9.245 
*END

*D_NET *145 0.00435537
*CONN
*I *4509:B I *D sky130_fd_sc_hd__and3_1
*I *4471:A3 I *D sky130_fd_sc_hd__a41o_1
*I *4449:B I *D sky130_fd_sc_hd__and3_4
*I *4455:A2 I *D sky130_fd_sc_hd__a31oi_4
*I *4445:Y O *D sky130_fd_sc_hd__nand2b_4
*CAP
1 *4509:B 0.000129516
2 *4471:A3 5.51335e-05
3 *4449:B 5.85881e-05
4 *4455:A2 0.000186038
5 *4445:Y 0.0006612
6 *145:22 0.000657313
7 *145:16 0.00061877
8 *145:10 0.000941666
9 *4449:B *4449:C 7.57202e-05
10 *4449:B *173:36 2.30292e-05
11 *4455:A2 *4449:C 0
12 *4455:A2 *232:104 0
13 *4471:A3 *4614:A 0.000162311
14 *4471:A3 *162:12 0.000124895
15 *145:10 *4621:A 0
16 *145:10 *146:10 0
17 *145:10 *230:24 0
18 *145:16 *230:24 0
19 *145:22 *4449:C 0.000276441
20 *145:22 *173:36 2.16833e-05
21 *145:22 *230:24 0
22 *145:22 *230:35 0
23 *4455:A1 *4455:A2 0
24 *4471:A2 *4471:A3 0.000238919
25 *4471:A2 *145:16 9.37731e-05
26 *4509:A *4509:B 2.77183e-05
27 *144:36 *4509:B 2.65814e-06
*RES
1 *4445:Y *145:10 13.59 
2 *145:10 *145:16 2.955 
3 *145:16 *145:22 9.05 
4 *145:22 *4455:A2 8.255 
5 *145:22 *4449:B 2.74 
6 *145:16 *4471:A3 6.12 
7 *145:10 *4509:B 5.085 
*END

*D_NET *146 0.00172162
*CONN
*I *4622:A I *D sky130_fd_sc_hd__clkbuf_1
*I *4621:A I *D sky130_fd_sc_hd__clkbuf_2
*I *4446:X O *D sky130_fd_sc_hd__mux2_1
*CAP
1 *4622:A 0
2 *4621:A 7.32628e-05
3 *4446:X 0.000601419
4 *146:10 0.000674682
5 *4621:A *230:22 5.4003e-05
6 *4621:A *230:24 9.30717e-05
7 *146:10 *186:16 9.14178e-05
8 *146:10 *230:22 0.000133763
9 *145:10 *4621:A 0
10 *145:10 *146:10 0
*RES
1 *4446:X *146:10 11.55 
2 *146:10 *4621:A 5.235 
3 *146:10 *4622:A 3.6 
*END

*D_NET *147 0.000490442
*CONN
*I *4620:A I *D sky130_fd_sc_hd__clkbuf_1
*I *4447:X O *D sky130_fd_sc_hd__mux2_1
*CAP
1 *4620:A 0.000245221
2 *4447:X 0.000245221
3 *4620:A *243:12 0
*RES
1 *4447:X *4620:A 10.32 
*END

*D_NET *148 0.000826384
*CONN
*I *4537:A1 I *D sky130_fd_sc_hd__a211o_1
*I *4538:A1 I *D sky130_fd_sc_hd__a2111oi_1
*I *4448:Y O *D sky130_fd_sc_hd__inv_1
*CAP
1 *4537:A1 0
2 *4538:A1 0.000148959
3 *4448:Y 0.000112547
4 *148:8 0.000261506
5 *4538:A1 *4537:B1 0.000116158
6 *4538:A1 *4538:C1 5.83121e-06
7 *4538:A1 *157:21 0
8 *4538:A1 *194:74 1.54061e-06
9 *148:8 *4537:B1 4.82919e-05
10 *148:8 *223:53 9.28886e-05
11 *4539:A2 *4538:A1 3.86607e-05
*RES
1 *4448:Y *148:8 3.6175 
2 *148:8 *4538:A1 8.045 
3 *148:8 *4537:A1 1.6 
*END

*D_NET *149 0.0127549
*CONN
*I *4554:B I *D sky130_fd_sc_hd__or3_1
*I *4523:B I *D sky130_fd_sc_hd__or3_1
*I *4570:A1 I *D sky130_fd_sc_hd__a211o_1
*I *4542:A2 I *D sky130_fd_sc_hd__o311a_1
*I *4449:X O *D sky130_fd_sc_hd__and3_4
*CAP
1 *4554:B 0.000140006
2 *4523:B 0
3 *4570:A1 6.85972e-05
4 *4542:A2 1.65033e-05
5 *4449:X 0.00105068
6 *149:28 0.00144182
7 *149:22 0.00278918
8 *149:10 0.00262314
9 *4542:A2 *4465:A 4.66108e-05
10 *4542:A2 *4542:A3 2.49909e-05
11 *4554:B *230:50 4.47209e-05
12 *4570:A1 *4542:A3 0.000160658
13 *149:10 *155:14 0.000608349
14 *149:10 *173:36 0.000601086
15 *149:10 *232:37 7.06865e-05
16 *149:22 *4512:A2 5.12017e-06
17 *149:22 *4513:B1 2.86623e-05
18 *149:22 *4553:B 0
19 *149:22 *161:58 9.37731e-05
20 *149:22 *167:20 0.000952974
21 *149:22 *167:26 0.000842413
22 *149:22 *173:36 8.53113e-06
23 *149:22 *194:46 0
24 *149:22 *230:56 0
25 *149:22 *232:12 0.000136877
26 *149:22 *232:37 6.21553e-05
27 *149:28 *4542:A3 5.23362e-05
28 *149:28 *4543:A1 3.00381e-05
29 *149:28 *220:22 5.11148e-06
30 *4514:B1 *149:22 0
31 *4523:C *149:28 1.83847e-05
32 *4529:A1 *149:28 9.23772e-05
33 *4543:A2 *149:28 0.000241089
34 *4543:B1 *149:28 3.86607e-05
35 *4548:B1 *4570:A1 0.000152821
36 *4548:B1 *149:28 0.000139245
37 *4555:A2 *4554:B 0.000120655
38 *4555:B1 *4570:A1 4.66108e-05
*RES
1 *4449:X *149:10 18.375 
2 *149:10 *149:22 32.82 
3 *149:22 *149:28 19.265 
4 *149:28 *4542:A2 4.05 
5 *149:28 *4570:A1 5.94 
6 *149:22 *4523:B 1.6 
7 *149:10 *4554:B 5.43 
*END

*D_NET *150 0.0119186
*CONN
*I *4472:A1 I *D sky130_fd_sc_hd__a31o_1
*I *4561:A2 I *D sky130_fd_sc_hd__a32o_1
*I *4451:B I *D sky130_fd_sc_hd__nand2_1
*I *4450:Y O *D sky130_fd_sc_hd__nand2b_4
*CAP
1 *4472:A1 0
2 *4561:A2 0.000397051
3 *4451:B 0
4 *4450:Y 0.000708333
5 *150:32 0.00209045
6 *150:10 0.00240173
7 *4561:A2 *4561:A1 0.00015806
8 *4561:A2 *240:21 2.50049e-05
9 *4561:A2 *240:32 0.000165592
10 *150:10 *4450:B 0.000197592
11 *150:10 *4472:A2 2.92496e-05
12 *150:10 *4515:A2 0
13 *150:10 *4563:S 0.000337524
14 *150:10 *4648:A 0
15 *150:10 *153:10 0
16 *150:10 *169:10 0
17 *150:10 *172:10 0.000137571
18 *150:10 *195:16 0
19 *150:10 *232:37 0.000149224
20 *150:10 *232:50 0.000137571
21 *150:10 *236:27 0
22 *150:32 *4472:A2 6.81315e-05
23 *150:32 *4499:B2 0.000245893
24 *150:32 *161:20 0.000993066
25 *150:32 *161:80 0.000100139
26 *150:32 *176:14 0.000135532
27 *150:32 *186:37 0.000979749
28 *150:32 *186:45 0.000179035
29 *150:32 *232:37 0
30 *150:32 *234:16 0.00131309
31 *4532:A2 *4561:A2 0
32 *4532:A2 *150:32 0
33 *4534:A *4561:A2 0
34 *4535:B1 *4561:A2 0.000445159
35 *4535:B2 *4561:A2 0.000333702
36 *4559:A3 *150:32 2.46089e-05
37 *4561:A3 *4561:A2 4.82863e-05
38 *64:41 *4561:A2 1.19928e-05
39 *64:45 *4561:A2 2.81759e-05
40 *67:8 *4561:A2 5.2089e-05
41 *67:21 *4561:A2 2.50049e-05
*RES
1 *4450:Y *150:10 18.435 
2 *150:10 *150:32 40.655 
3 *150:32 *4451:B 3.6 
4 *150:32 *4561:A2 14.88 
5 *150:10 *4472:A1 3.6 
*END

*D_NET *151 0.00284029
*CONN
*I *4557:A1 I *D sky130_fd_sc_hd__o21ai_1
*I *4466:A1 I *D sky130_fd_sc_hd__o211a_1
*I *4551:A1 I *D sky130_fd_sc_hd__o2111a_1
*I *4451:Y O *D sky130_fd_sc_hd__nand2_1
*CAP
1 *4557:A1 0
2 *4466:A1 0
3 *4551:A1 0.000371093
4 *4451:Y 0.000405858
5 *151:12 0.000431395
6 *151:10 0.00046616
7 *4551:A1 *4459:A 0
8 *4551:A1 *4459:B 2.86623e-05
9 *4551:A1 *4528:B 0
10 *4551:A1 *4557:A2 9.50342e-06
11 *4551:A1 *158:28 0
12 *4551:A1 *159:10 0.000136884
13 *4551:A1 *173:94 5.37018e-05
14 *151:10 *161:80 0.000502809
15 *151:12 *4484:B2 4.11112e-05
16 *151:12 *4528:B 0
17 *151:12 *4557:A2 0.00015212
18 *151:12 *177:52 1.03755e-05
19 *4534:A *4551:A1 0
20 *4534:A *151:10 0
21 *4534:A *151:12 0
22 *4551:A2 *4551:A1 4.9253e-06
23 *4556:B1 *4551:A1 6.14689e-05
24 *4560:A2 *4551:A1 9.42224e-05
25 *4560:A2 *151:10 6.99988e-05
*RES
1 *4451:Y *151:10 9.825 
2 *151:10 *151:12 1.89 
3 *151:12 *4551:A1 10.38 
4 *151:12 *4466:A1 3.6 
5 *151:10 *4557:A1 3.6 
*END

*D_NET *152 0.000822937
*CONN
*I *4617:A I *D sky130_fd_sc_hd__clkbuf_2
*I *4495:A_N I *D sky130_fd_sc_hd__nand2b_4
*I *4452:X O *D sky130_fd_sc_hd__mux2_1
*CAP
1 *4617:A 0.000106931
2 *4495:A_N 3.37585e-05
3 *4452:X 0.000270779
4 *152:8 0.000411469
5 *4617:A *4508:A1 0
6 *4617:A *170:8 0
*RES
1 *4452:X *152:8 5.77 
2 *152:8 *4495:A_N 2.05 
3 *152:8 *4617:A 7.235 
*END

*D_NET *153 0.00324428
*CONN
*I *4515:A2 I *D sky130_fd_sc_hd__a22o_4
*I *4510:A1 I *D sky130_fd_sc_hd__a21oi_1
*I *4554:C I *D sky130_fd_sc_hd__or3_1
*I *4453:Y O *D sky130_fd_sc_hd__clkinv_1
*CAP
1 *4515:A2 0.000115208
2 *4510:A1 4.6281e-05
3 *4554:C 0.000217529
4 *4453:Y 3.72342e-05
5 *153:10 0.000797492
6 *153:8 0.000686124
7 *4510:A1 *219:8 2.49909e-05
8 *4515:A2 *4509:C 0
9 *4515:A2 *4515:B1 4.82919e-05
10 *4515:A2 *4515:B2 0.000163204
11 *4515:A2 *222:10 0
12 *4515:A2 *236:27 6.90876e-05
13 *4554:C *4472:A2 0
14 *4554:C *155:14 5.93757e-05
15 *4554:C *219:12 0.000332802
16 *4554:C *219:34 0.000199833
17 *4554:C *222:10 0
18 *4554:C *230:50 0.000235568
19 *153:8 *4472:B1 1.83756e-05
20 *153:10 *4472:A2 0
21 *153:10 *4472:B1 0
22 *153:10 *222:10 0
23 *4512:A3 *153:10 9.62357e-05
24 *4512:B1 *4510:A1 5.78726e-05
25 *143:33 *4510:A1 3.87788e-05
26 *150:10 *4515:A2 0
27 *150:10 *153:10 0
*RES
1 *4453:Y *153:8 4.05 
2 *153:8 *153:10 9.03 
3 *153:10 *4554:C 9.96 
4 *153:10 *4510:A1 4.74 
5 *153:8 *4515:A2 6.465 
*END

*D_NET *154 0.00304796
*CONN
*I *4465:A I *D sky130_fd_sc_hd__nand2_1
*I *4571:A1 I *D sky130_fd_sc_hd__o211a_1
*I *4541:A I *D sky130_fd_sc_hd__nand2_1
*I *4454:Y O *D sky130_fd_sc_hd__nand2b_2
*CAP
1 *4465:A 0.000551056
2 *4571:A1 0
3 *4541:A 9.71884e-06
4 *4454:Y 0.000188668
5 *154:27 0.000734669
6 *154:14 0.000381999
7 *4465:A *4456:A 0.0001032
8 *4465:A *4542:B1 2.54431e-05
9 *4465:A *155:26 2.23407e-05
10 *4465:A *220:14 0.000139238
11 *4465:A *220:16 0.000141606
12 *4465:A *224:28 3.09233e-05
13 *4541:A *4540:A2 4.82919e-05
14 *4541:A *194:38 4.82919e-05
15 *154:14 *4505:B 0.000131791
16 *154:14 *229:77 4.92935e-05
17 *154:14 *230:80 0
18 *154:27 *4505:B 8.97564e-05
19 *154:27 *4543:A1 0.000189426
20 *154:27 *4570:A2 0
21 *4542:A2 *4465:A 4.66108e-05
22 *4542:C1 *4465:A 4.66826e-05
23 *4543:B1 *4465:A 1.1392e-05
24 *4571:A2 *4465:A 5.75628e-05
*RES
1 *4454:Y *154:14 7.185 
2 *154:14 *4541:A 4.05 
3 *154:14 *154:27 6.185 
4 *154:27 *4571:A1 1.6 
5 *154:27 *4465:A 15.575 
*END

*D_NET *155 0.0116407
*CONN
*I *4521:A2 I *D sky130_fd_sc_hd__o2111a_1
*I *4550:B1 I *D sky130_fd_sc_hd__a211o_1
*I *4456:A I *D sky130_fd_sc_hd__inv_1
*I *4570:B1 I *D sky130_fd_sc_hd__a211o_1
*I *4542:A3 I *D sky130_fd_sc_hd__o311a_1
*I *4455:Y O *D sky130_fd_sc_hd__a31oi_4
*CAP
1 *4521:A2 0
2 *4550:B1 2.07452e-05
3 *4456:A 0.000103149
4 *4570:B1 0
5 *4542:A3 8.70113e-05
6 *4455:Y 0.000858209
7 *155:26 0.000145471
8 *155:24 0.000588765
9 *155:20 0.00117881
10 *155:14 0.00158912
11 *4456:A *4465:B 2.61518e-05
12 *4456:A *224:28 2.61518e-05
13 *4542:A3 *220:16 0.000153794
14 *4542:A3 *220:22 4.73669e-05
15 *4550:B1 *4550:A2 2.61183e-06
16 *155:14 *4455:A3 0.000113809
17 *155:14 *4476:A 0.000304986
18 *155:14 *4511:A2 0.00099682
19 *155:14 *4511:A3 0.000415935
20 *155:14 *4552:A1 4.99619e-05
21 *155:14 *173:36 0.000593675
22 *155:14 *219:59 0.000146408
23 *155:14 *222:10 0
24 *155:14 *227:16 9.80943e-06
25 *155:14 *227:22 2.96334e-05
26 *155:14 *230:50 0.00025143
27 *155:20 *4527:A2 8.40213e-05
28 *155:20 *4550:A2 3.7712e-05
29 *155:20 *4550:C1 8.65905e-05
30 *155:20 *4552:A1 0.0003104
31 *155:20 *157:68 4.08514e-05
32 *155:20 *173:81 0.00040617
33 *155:20 *194:46 3.57349e-05
34 *155:20 *220:6 9.66106e-05
35 *155:20 *220:8 0.00010163
36 *155:20 *220:14 8.95933e-05
37 *155:20 *237:8 2.75229e-05
38 *155:24 *4550:A2 7.35813e-05
39 *155:24 *158:28 0.000730964
40 *155:24 *220:14 0.000268628
41 *155:26 *220:14 0.000131408
42 *155:26 *220:16 9.50342e-06
43 *4465:A *4456:A 0.0001032
44 *4465:A *155:26 2.23407e-05
45 *4526:A *155:20 8.23457e-05
46 *4542:A2 *4542:A3 2.49909e-05
47 *4548:B1 *4456:A 9.9535e-05
48 *4548:B1 *155:26 9.61052e-05
49 *4551:B1 *155:24 1.83756e-05
50 *4554:C *155:14 5.93757e-05
51 *4570:A1 *4542:A3 0.000160658
52 *4623:A *155:20 4.23245e-05
53 *149:10 *155:14 0.000608349
54 *149:28 *4542:A3 5.23362e-05
*RES
1 *4455:Y *155:14 30.38 
2 *155:14 *155:20 16.095 
3 *155:20 *155:24 12.8 
4 *155:24 *155:26 2.145 
5 *155:26 *4542:A3 6.45 
6 *155:26 *4570:B1 3.6 
7 *155:24 *4456:A 6.43125 
8 *155:20 *4550:B1 1.96 
9 *155:14 *4521:A2 1.6 
*END

*D_NET *156 0.000751497
*CONN
*I *4544:A1 I *D sky130_fd_sc_hd__a221o_1
*I *4456:Y O *D sky130_fd_sc_hd__inv_1
*CAP
1 *4544:A1 8.66978e-05
2 *4456:Y 8.66978e-05
3 *4544:A1 *164:32 0.000274675
4 *4544:A1 *173:100 3.04189e-05
5 *4548:B1 *4544:A1 0.000273008
*RES
1 *4456:Y *4544:A1 10.6425 
*END

*D_NET *157 0.010668
*CONN
*I *4552:A2 I *D sky130_fd_sc_hd__a32o_1
*I *4507:B I *D sky130_fd_sc_hd__nand2_1
*I *4550:A2 I *D sky130_fd_sc_hd__a211o_1
*I *4553:A I *D sky130_fd_sc_hd__or3b_1
*I *4538:A2 I *D sky130_fd_sc_hd__a2111oi_1
*I *4537:A2 I *D sky130_fd_sc_hd__a211o_1
*I *4457:Y O *D sky130_fd_sc_hd__xnor2_2
*CAP
1 *4552:A2 0
2 *4507:B 0.00119035
3 *4550:A2 0.000144586
4 *4553:A 0
5 *4538:A2 2.56208e-05
6 *4537:A2 3.91004e-05
7 *4457:Y 0.00027503
8 *157:68 0.00206449
9 *157:47 0.001184
10 *157:36 0.00050164
11 *157:21 0.000457333
12 *157:10 0.000409477
13 *4507:B *4520:A1 0.000272984
14 *4507:B *4530:A2 0.000590947
15 *4507:B *4536:A 0.000127998
16 *4507:B *4536:B 4.29702e-05
17 *4507:B *195:16 1.32843e-05
18 *4507:B *195:24 0.000382934
19 *4507:B *234:16 0.000307935
20 *4537:A2 *223:53 0.0001249
21 *4538:A2 *194:38 1.83847e-05
22 *4550:A2 *4527:A2 4.66108e-05
23 *4550:A2 *4550:C1 8.65905e-05
24 *157:10 *4457:A 5.05437e-05
25 *157:21 *4457:A 0
26 *157:36 *194:46 0.00023367
27 *157:36 *231:41 0
28 *157:36 *234:22 0
29 *157:47 *4527:A2 2.92496e-05
30 *157:47 *4550:C1 5.37079e-05
31 *157:47 *231:41 0
32 *157:68 *4527:A2 3.57349e-05
33 *157:68 *4552:A3 3.06427e-05
34 *157:68 *161:39 8.53113e-06
35 *157:68 *161:58 0.000199833
36 *157:68 *173:81 0.00011893
37 *157:68 *194:46 4.66108e-05
38 *4529:A1 *157:36 0.00020779
39 *4529:A1 *157:47 0.000381323
40 *4529:A1 *157:68 7.21296e-06
41 *4532:A2 *4507:B 0.000139058
42 *4538:A1 *157:21 0
43 *4539:A2 *4537:A2 3.00381e-05
44 *4539:A2 *157:21 6.55328e-05
45 *4539:A2 *157:36 3.76596e-05
46 *4550:B1 *4550:A2 2.61183e-06
47 *4555:A1 *157:47 0
48 *4623:A *157:68 2.05056e-05
49 *4624:A *157:68 9.07793e-05
50 *64:24 *4507:B 6.05513e-05
51 *94:10 *4550:A2 0.000122325
52 *94:10 *157:68 4.66108e-05
53 *143:33 *157:68 0.000150852
54 *143:37 *157:68 3.83995e-05
55 *155:20 *4550:A2 3.7712e-05
56 *155:20 *157:68 4.08514e-05
57 *155:24 *4550:A2 7.35813e-05
*RES
1 *4457:Y *157:10 7.92 
2 *157:10 *4537:A2 4.74 
3 *157:10 *157:21 1.89 
4 *157:21 *4538:A2 4.05 
5 *157:21 *157:36 7.035 
6 *157:36 *4553:A 3.6 
7 *157:36 *157:47 6.44 
8 *157:47 *4550:A2 4.825 
9 *157:47 *157:68 16.645 
10 *157:68 *4507:B 31.415 
11 *157:68 *4552:A2 1.6 
*END

*D_NET *158 0.0135826
*CONN
*I *4518:A1 I *D sky130_fd_sc_hd__a211o_1
*I *4517:A I *D sky130_fd_sc_hd__nor2_1
*I *4476:B I *D sky130_fd_sc_hd__nand2_2
*I *4530:A1 I *D sky130_fd_sc_hd__a32o_1
*I *4459:B I *D sky130_fd_sc_hd__nor2_1
*I *4458:X O *D sky130_fd_sc_hd__xor2_2
*CAP
1 *4518:A1 9.51041e-05
2 *4517:A 0
3 *4476:B 0.000191977
4 *4530:A1 0
5 *4459:B 3.69283e-05
6 *4458:X 0.00203068
7 *158:54 0.000212787
8 *158:52 0.000308279
9 *158:43 0.00135014
10 *158:28 0.00322538
11 *4476:B *4499:B2 0.000507321
12 *4476:B *4511:A2 7.17811e-05
13 *4476:B *4552:A1 4.99619e-05
14 *4476:B *176:6 8.49205e-05
15 *4476:B *177:71 1.71207e-05
16 *4476:B *182:20 0.00033517
17 *4476:B *219:59 4.82863e-05
18 *4518:A1 *4484:A2 5.30673e-05
19 *4518:A1 *4518:A2 0.0001249
20 *4518:A1 *4530:B1 8.34281e-06
21 *158:28 *4458:B 8.65905e-05
22 *158:28 *4459:A 6.97655e-05
23 *158:28 *4502:A 0.00062029
24 *158:28 *164:6 2.93517e-05
25 *158:28 *164:19 0.000190032
26 *158:28 *167:41 0.000226774
27 *158:28 *173:119 4.35348e-05
28 *158:28 *220:14 0.000694329
29 *158:28 *229:42 0.000193806
30 *158:28 *234:100 8.53113e-06
31 *158:28 *238:61 4.82919e-05
32 *158:43 *4459:A 0.000161529
33 *158:43 *4673:A 0.000388251
34 *158:43 *195:24 7.92464e-06
35 *158:43 *195:32 1.19928e-05
36 *158:43 *238:22 5.28802e-05
37 *158:52 *4530:A3 1.85674e-05
38 *158:52 *4530:B1 0.000136163
39 *158:52 *4530:B2 8.49205e-05
40 *158:52 *195:24 9.6819e-05
41 *4518:B1 *4518:A1 4.76044e-05
42 *4544:B1 *158:28 9.98439e-05
43 *4544:B1 *158:43 6.05513e-05
44 *4551:A1 *4459:B 2.86623e-05
45 *4551:A1 *158:28 0
46 *4551:B1 *158:28 0
47 *4556:B1 *158:28 0
48 *4560:A2 *158:28 6.55328e-05
49 *4568:C *158:28 0.000139032
50 *4569:B1 *158:28 0.000233104
51 *65:6 *158:28 0.000110668
52 *94:23 *4459:B 0
53 *105:14 *158:28 4.76659e-05
54 *105:31 *158:28 1.1561e-05
55 *124:12 *158:28 8.49218e-05
56 *155:24 *158:28 0.000730964
*RES
1 *4458:X *158:28 49.905 
2 *158:28 *4459:B 6.215 
3 *158:28 *158:43 14.61 
4 *158:43 *4530:A1 1.6 
5 *158:43 *158:52 4.17 
6 *158:52 *158:54 0.36 
7 *158:54 *4476:B 12.365 
8 *158:54 *4517:A 1.6 
9 *158:52 *4518:A1 4.135 
*END

*D_NET *159 0.00201978
*CONN
*I *4557:A2 I *D sky130_fd_sc_hd__o21ai_1
*I *4466:A2 I *D sky130_fd_sc_hd__o211a_1
*I *4527:A1 I *D sky130_fd_sc_hd__o21a_1
*I *4459:Y O *D sky130_fd_sc_hd__nor2_1
*CAP
1 *4557:A2 4.22241e-05
2 *4466:A2 0
3 *4527:A1 0.000109436
4 *4459:Y 0.000132476
5 *159:12 0.000109436
6 *159:10 0.0001747
7 *4527:A1 *4466:B1 3.26889e-05
8 *4527:A1 *4528:A 4.45442e-05
9 *4527:A1 *163:52 2.88482e-05
10 *4527:A1 *163:75 9.01757e-05
11 *4527:A1 *177:52 6.97118e-05
12 *4527:A1 *224:14 0.000472358
13 *159:10 *238:22 0.000124007
14 *4551:A1 *4557:A2 9.50342e-06
15 *4551:A1 *159:10 0.000136884
16 *4560:A2 *4557:A2 0.00015212
17 *4560:A2 *159:10 0.000138551
18 *151:12 *4557:A2 0.00015212
*RES
1 *4459:Y *159:10 6.375 
2 *159:10 *159:12 2 
3 *159:12 *4527:A1 6.205 
4 *159:12 *4466:A2 1.6 
5 *159:10 *4557:A2 5.49 
*END

*D_NET *160 0.000163206
*CONN
*I *4461:B1 I *D sky130_fd_sc_hd__o21ai_4
*I *4460:X O *D sky130_fd_sc_hd__or2_4
*CAP
1 *4461:B1 8.1603e-05
2 *4460:X 8.1603e-05
*RES
1 *4460:X *4461:B1 4.34 
*END

*D_NET *161 0.0281164
*CONN
*I *4531:B2 I *D sky130_fd_sc_hd__o22a_1
*I *4529:B1 I *D sky130_fd_sc_hd__o21ai_1
*I *4547:C1 I *D sky130_fd_sc_hd__a211o_1
*I *4576:C1 I *D sky130_fd_sc_hd__a311o_1
*I *4572:A1 I *D sky130_fd_sc_hd__a311o_1
*I *4539:C1 I *D sky130_fd_sc_hd__a211o_1
*I *4540:C1 I *D sky130_fd_sc_hd__o221a_1
*I *4551:C1 I *D sky130_fd_sc_hd__o2111a_1
*I *4516:A I *D sky130_fd_sc_hd__or3b_1
*I *4461:Y O *D sky130_fd_sc_hd__o21ai_4
*CAP
1 *4531:B2 0.000103468
2 *4529:B1 0
3 *4547:C1 2.69122e-05
4 *4576:C1 5.46292e-05
5 *4572:A1 0.000469061
6 *4539:C1 0
7 *4540:C1 0.000516804
8 *4551:C1 0.000355055
9 *4516:A 0
10 *4461:Y 0.00309432
11 *161:86 0.00117206
12 *161:80 0.0012972
13 *161:58 0.00100945
14 *161:39 0.00122063
15 *161:35 0.00100658
16 *161:31 4.40112e-05
17 *161:29 0.000703604
18 *161:20 0.00366218
19 *4540:C1 *4538:B1 4.82863e-05
20 *4540:C1 *4540:B2 0.00103082
21 *4540:C1 *190:33 3.64936e-05
22 *4540:C1 *234:20 0.000378513
23 *4547:C1 *4547:A1 9.72742e-06
24 *4551:C1 *173:81 0.000103554
25 *4572:A1 *4545:B 0.000380991
26 *4572:A1 *4572:A2 4.66108e-05
27 *4572:A1 *177:14 0.000145113
28 *4572:A1 *194:10 0.000172138
29 *4576:C1 *4573:A 1.90686e-05
30 *4576:C1 *177:26 1.31519e-05
31 *4576:C1 *177:35 3.45252e-05
32 *4576:C1 *177:52 1.91597e-05
33 *161:20 *4444:B 0.000207887
34 *161:20 *4461:A2 0.000209179
35 *161:20 *4472:A3 0
36 *161:20 *4484:A2 0
37 *161:20 *4519:B2 0
38 *161:20 *233:18 0.000210839
39 *161:20 *234:16 0.000441262
40 *161:29 *4484:B2 0.000153482
41 *161:31 *4484:B2 0.000112622
42 *161:35 *4484:B2 2.75229e-05
43 *161:39 *4527:B1 0.000157325
44 *161:39 *173:81 5.23362e-05
45 *161:39 *224:14 0
46 *161:39 *238:10 0.000358937
47 *161:58 *4533:A 0
48 *161:58 *4553:B 0
49 *161:58 *4553:C_N 0
50 *161:58 *4644:A 6.68849e-05
51 *161:58 *190:33 8.49205e-05
52 *161:58 *194:46 0
53 *161:58 *234:20 4.47209e-05
54 *161:58 *237:10 0.000484183
55 *161:58 *237:16 0.000159957
56 *161:80 *4559:A1 3.73289e-05
57 *161:80 *186:45 0.000804109
58 *161:80 *224:80 6.07575e-06
59 *161:86 *4547:A1 0.000120655
60 *161:86 *4565:C 0.000302587
61 *161:86 *194:10 9.50342e-06
62 *4503:B *4572:A1 3.50033e-05
63 *4516:C_N *161:20 4.18603e-06
64 *4519:A2 *161:29 3.77341e-05
65 *4519:B1 *161:29 0.000131146
66 *4529:A1 *161:39 0.000102116
67 *4531:A2 *4531:B2 0
68 *4531:A2 *161:39 0.000137563
69 *4532:A2 *161:80 0
70 *4532:B1 *4531:B2 5.4256e-05
71 *4532:B1 *161:80 0
72 *4547:B1 *4547:C1 9.53428e-06
73 *4548:A3 *161:86 8.49205e-05
74 *4551:A2 *4551:C1 0.000273878
75 *4555:B1 *4572:A1 9.81156e-05
76 *4556:A2 *4551:C1 2.19562e-06
77 *4558:B *4547:C1 9.53428e-06
78 *4558:B *161:80 1.56428e-05
79 *4558:B *161:86 1.34503e-05
80 *4559:A3 *161:80 2.30292e-05
81 *4559:B1 *161:80 1.12459e-05
82 *4559:B2 *161:80 0.000316421
83 *4572:B1 *4572:A1 2.75229e-05
84 *4575:A1 *4572:A1 5.16418e-05
85 *4575:A1 *4576:C1 4.66108e-05
86 *4575:A1 *161:86 0.000104287
87 *4578:B *4576:C1 5.83121e-06
88 *4623:A *161:58 0
89 *4624:A *161:58 0.000238137
90 *4626:A *4531:B2 0
91 *66:10 *4572:A1 8.88038e-05
92 *66:23 *4572:A1 1.15688e-05
93 *66:23 *161:86 0.000109541
94 *77:23 *161:29 0.00161858
95 *77:23 *161:31 0.000201503
96 *77:23 *161:35 4.82919e-05
97 *83:16 *4540:C1 0.000234449
98 *83:16 *161:58 8.52172e-05
99 *89:10 *161:39 0
100 *89:10 *161:80 0
101 *105:31 *4572:A1 0.00036929
102 *105:35 *161:86 0.000390577
103 *149:22 *161:58 9.37731e-05
104 *150:32 *161:20 0.000993066
105 *150:32 *161:80 0.000100139
106 *151:10 *161:80 0.000502809
107 *157:68 *161:39 8.53113e-06
108 *157:68 *161:58 0.000199833
*RES
1 *4461:Y *161:20 49.47 
2 *161:20 *4516:A 1.6 
3 *161:20 *161:29 15.3 
4 *161:29 *161:31 1.83 
5 *161:31 *161:35 2.45 
6 *161:35 *161:39 11.03 
7 *161:39 *4551:C1 6.19 
8 *161:39 *161:58 17.125 
9 *161:58 *4540:C1 16.225 
10 *161:58 *4539:C1 1.6 
11 *161:35 *161:80 16.505 
12 *161:80 *161:86 15.785 
13 *161:86 *4572:A1 16.62 
14 *161:86 *4576:C1 5.115 
15 *161:80 *4547:C1 2.215 
16 *161:31 *4529:B1 1.6 
17 *161:29 *4531:B2 7.745 
*END

*D_NET *162 0.00365217
*CONN
*I *4615:A I *D sky130_fd_sc_hd__buf_1
*I *4614:A I *D sky130_fd_sc_hd__clkbuf_1
*I *4462:X O *D sky130_fd_sc_hd__mux2_1
*CAP
1 *4615:A 0
2 *4614:A 0.000149346
3 *4462:X 0.00114371
4 *162:12 0.00129306
5 *4614:A *228:8 0.000131791
6 *4614:A *228:12 0.000124007
7 *162:12 *185:12 6.23206e-05
8 *162:12 *233:18 0.000296094
9 *4471:A2 *4614:A 2.30292e-05
10 *4471:A3 *4614:A 0.000162311
11 *4471:A3 *162:12 0.000124895
12 *54:25 *162:12 0.000141606
*RES
1 *4462:X *162:12 24.995 
2 *162:12 *4614:A 5.5 
3 *162:12 *4615:A 1.6 
*END

*D_NET *163 0.0182144
*CONN
*I *4540:A2 I *D sky130_fd_sc_hd__o221a_1
*I *4530:B2 I *D sky130_fd_sc_hd__a32o_1
*I *4552:B2 I *D sky130_fd_sc_hd__a32o_1
*I *4497:A1 I *D sky130_fd_sc_hd__o21ai_1
*I *4528:A I *D sky130_fd_sc_hd__nand2_1
*I *4576:A3 I *D sky130_fd_sc_hd__a311o_1
*I *4574:A1 I *D sky130_fd_sc_hd__a22o_1
*I *4463:Y O *D sky130_fd_sc_hd__nand2_4
*CAP
1 *4540:A2 0.000543929
2 *4530:B2 1.8095e-05
3 *4552:B2 0
4 *4497:A1 0.000684348
5 *4528:A 4.21491e-05
6 *4576:A3 0
7 *4574:A1 0
8 *4463:Y 0.000148961
9 *163:77 0.000794311
10 *163:75 0.00143715
11 *163:52 0.00295788
12 *163:43 0.00172031
13 *163:30 0.000960422
14 *163:14 0.00153964
15 *4497:A1 *4497:A2 0
16 *4497:A1 *4497:B1 0
17 *4497:A1 *4498:A1 0.000115464
18 *4497:A1 *4498:B1 0
19 *4497:A1 *4499:B2 0
20 *4497:A1 *173:63 1.07797e-05
21 *4497:A1 *176:14 0.000136884
22 *4497:A1 *193:29 0
23 *4497:A1 *234:16 0.000318119
24 *4530:B2 *4530:B1 8.49205e-05
25 *4540:A2 *4540:A1 5.05521e-05
26 *4540:A2 *194:6 0.000181005
27 *4540:A2 *194:38 0.000438836
28 *163:14 *4463:B 4.89295e-05
29 *163:14 *194:6 4.7003e-05
30 *163:14 *218:16 5.06989e-05
31 *163:14 *229:6 3.6355e-05
32 *163:14 *229:21 0.000134878
33 *163:30 *4545:B 8.4841e-05
34 *163:30 *177:14 0.000596026
35 *163:30 *229:29 0
36 *163:43 *4545:B 0.00011194
37 *163:43 *177:14 8.52845e-05
38 *163:43 *177:26 2.0231e-05
39 *163:43 *238:38 0.000191702
40 *163:52 *4576:A1 2.35144e-05
41 *163:52 *177:26 2.68338e-05
42 *163:52 *177:35 8.23457e-05
43 *163:52 *177:52 0.00200763
44 *163:52 *238:40 1.56428e-05
45 *163:75 *4527:A2 7.5037e-05
46 *163:75 *176:14 0.000137571
47 *163:75 *195:24 7.06865e-05
48 *163:75 *224:14 0.000324505
49 *163:75 *234:16 5.82002e-05
50 *163:77 *176:14 0.00035825
51 *163:77 *234:16 0.000191882
52 *4503:A *163:30 6.69608e-06
53 *4503:A *163:43 2.20014e-05
54 *4526:B *4497:A1 9.97548e-05
55 *4527:A1 *4528:A 4.45442e-05
56 *4527:A1 *163:52 2.88482e-05
57 *4527:A1 *163:75 9.01757e-05
58 *4529:A1 *163:75 0.000115391
59 *4531:B1 *163:75 0.000256941
60 *4541:A *4540:A2 4.82919e-05
61 *4541:B *4540:A2 4.99619e-05
62 *4543:A3 *4540:A2 8.34281e-06
63 *4569:B1 *163:30 5.91234e-05
64 *4574:B1 *163:30 4.77757e-05
65 *4575:A2 *163:43 7.98745e-06
66 *4577:B1 *163:30 0.000105344
67 *4577:B1 *163:43 0.00015264
68 *89:10 *163:75 2.19433e-05
69 *158:52 *4530:B2 8.49205e-05
*RES
1 *4463:Y *163:14 9.08 
2 *163:14 *163:30 24.86 
3 *163:30 *4574:A1 1.6 
4 *163:30 *163:43 7.795 
5 *163:43 *4576:A3 1.6 
6 *163:43 *163:52 22.11 
7 *163:52 *4528:A 2.6125 
8 *163:52 *163:75 24.06 
9 *163:75 *163:77 4.185 
10 *163:77 *4497:A1 17.43 
11 *163:77 *4552:B2 3.6 
12 *163:75 *4530:B2 4.395 
13 *163:14 *4540:A2 13.09 
*END

*D_NET *164 0.00597686
*CONN
*I *4547:A1 I *D sky130_fd_sc_hd__a211o_1
*I *4544:A2 I *D sky130_fd_sc_hd__a221o_1
*I *4465:B I *D sky130_fd_sc_hd__nand2_1
*I *4568:A I *D sky130_fd_sc_hd__or3_1
*I *4464:Y O *D sky130_fd_sc_hd__a21oi_2
*CAP
1 *4547:A1 0.0002516
2 *4544:A2 7.18416e-06
3 *4465:B 6.11434e-05
4 *4568:A 2.09808e-05
5 *4464:Y 6.08931e-05
6 *164:32 0.000383485
7 *164:19 0.000884603
8 *164:6 0.000780632
9 *4465:B *173:100 0.000160641
10 *4465:B *224:28 7.45736e-05
11 *4544:A2 *238:38 1.2818e-05
12 *4547:A1 *4488:A 0
13 *4547:A1 *4575:B1 0
14 *4547:A1 *186:57 8.09021e-06
15 *164:19 *4502:A 4.21973e-05
16 *164:19 *173:119 0.000618615
17 *164:19 *179:12 8.97642e-05
18 *164:19 *179:38 5.53249e-06
19 *164:32 *4575:B1 0
20 *164:32 *179:38 0.000111096
21 *4456:A *4465:B 2.61518e-05
22 *4544:A1 *164:32 0.000274675
23 *4547:A2 *4547:A1 7.36484e-05
24 *4547:B1 *4547:A1 5.4155e-06
25 *4547:C1 *4547:A1 9.72742e-06
26 *4548:A2 *4547:A1 0.00027064
27 *4548:A3 *4547:A1 7.63125e-05
28 *4548:B1 *4547:A1 0.000186627
29 *4548:B1 *164:19 8.78892e-05
30 *4548:B1 *164:32 3.39095e-05
31 *4549:A2 *4547:A1 1.73877e-05
32 *4568:C *164:6 8.40213e-05
33 *4569:B1 *164:19 0.000130361
34 *65:6 *164:19 6.71882e-05
35 *105:31 *164:6 8.52883e-05
36 *105:31 *164:19 0.000566546
37 *105:35 *4547:A1 6.71882e-05
38 *158:28 *164:6 2.93517e-05
39 *158:28 *164:19 0.000190032
40 *161:86 *4547:A1 0.000120655
*RES
1 *4464:Y *164:6 3.085 
2 *164:6 *4568:A 1.96 
3 *164:6 *164:19 18.14 
4 *164:19 *4465:B 5.445 
5 *164:19 *164:32 3.93 
6 *164:32 *4544:A2 3.72375 
7 *164:32 *4547:A1 11.325 
*END

*D_NET *165 0.00259712
*CONN
*I *4466:C1 I *D sky130_fd_sc_hd__o211a_1
*I *4465:Y O *D sky130_fd_sc_hd__nand2_1
*CAP
1 *4466:C1 0.000298098
2 *4465:Y 0.000298098
3 *4466:C1 *4488:A 0.000489651
4 *4466:C1 *177:52 0.00069176
5 *4466:C1 *224:18 0.00062029
6 *4548:B1 *4466:C1 0.000199221
*RES
1 *4465:Y *4466:C1 19.23 
*END

*D_NET *166 0.0044123
*CONN
*I *4484:B2 I *D sky130_fd_sc_hd__o32a_1
*I *4466:X O *D sky130_fd_sc_hd__o211a_1
*CAP
1 *4484:B2 0.00108092
2 *4466:X 0.00108092
3 *4484:B2 *4478:B1 8.23457e-05
4 *4484:B2 *4484:A1 2.31651e-05
5 *4484:B2 *4484:B1 1.85674e-05
6 *4484:B2 *4499:A1_N 0.000122337
7 *4484:B2 *4532:B2 1.70935e-05
8 *4484:B2 *177:52 7.9642e-06
9 *4484:B2 *186:37 0.00038605
10 *4484:B2 *240:58 0.000842424
11 *4532:B1 *4484:B2 0
12 *4534:A *4484:B2 0
13 *4626:A *4484:B2 0.000222119
14 *77:23 *4484:B2 0.000193647
15 *151:12 *4484:B2 4.11112e-05
16 *161:29 *4484:B2 0.000153482
17 *161:31 *4484:B2 0.000112622
18 *161:35 *4484:B2 2.75229e-05
*RES
1 *4466:X *4484:B2 35.38 
*END

*D_NET *167 0.0179893
*CONN
*I *4472:A2 I *D sky130_fd_sc_hd__a31o_1
*I *4513:A2 I *D sky130_fd_sc_hd__o22a_1
*I *4524:A1 I *D sky130_fd_sc_hd__o211a_1
*I *4565:A I *D sky130_fd_sc_hd__or4b_1
*I *4559:A2 I *D sky130_fd_sc_hd__a32o_1
*I *4540:B1 I *D sky130_fd_sc_hd__o221a_1
*I *4467:Y O *D sky130_fd_sc_hd__nand2_4
*CAP
1 *4472:A2 0.0010115
2 *4513:A2 0
3 *4524:A1 0
4 *4565:A 0.00130282
5 *4559:A2 0
6 *4540:B1 0.000600485
7 *4467:Y 0.000347724
8 *167:41 0.00225244
9 *167:26 0.00237325
10 *167:20 0.00136986
11 *167:14 0.000588061
12 *167:12 0.00140057
13 *4472:A2 *4472:B1 4.66108e-05
14 *4472:A2 *4512:A2 0
15 *4472:A2 *4513:B2 5.21714e-05
16 *4472:A2 *4562:A 4.21973e-05
17 *4472:A2 *172:10 3.00381e-05
18 *4472:A2 *219:12 0
19 *4472:A2 *219:16 0
20 *4472:A2 *227:10 0
21 *4472:A2 *232:37 0
22 *4540:B1 *4540:A1 0
23 *4540:B1 *4540:B2 0.000596788
24 *4565:A *4565:C 0.000333195
25 *4565:A *186:45 2.4997e-05
26 *4565:A *186:53 7.67415e-06
27 *4565:A *188:56 0.000431333
28 *4565:A *188:67 4.82863e-05
29 *167:12 *219:16 0.000129687
30 *167:12 *222:10 0
31 *167:12 *222:12 0
32 *167:12 *232:6 0.000124753
33 *167:14 *232:6 1.34503e-05
34 *167:14 *232:12 2.11084e-05
35 *167:20 *4513:A1 0
36 *167:20 *4513:B2 2.75229e-05
37 *167:20 *4524:A2 0.00106712
38 *167:20 *232:12 4.9634e-05
39 *167:26 *4524:A2 3.25635e-05
40 *167:26 *4524:B1 4.47209e-05
41 *167:41 *186:45 3.24046e-05
42 *4504:B *4565:A 0.000452577
43 *4512:B2 *4472:A2 6.02202e-05
44 *4514:B1 *167:20 0.000119631
45 *4524:C1 *167:26 0.00054457
46 *4543:A2 *4540:B1 3.47837e-05
47 *4554:C *4472:A2 0
48 *4555:A1 *167:26 8.5841e-05
49 *4556:B1 *167:41 0
50 *4559:B1 *167:41 7.44453e-05
51 *4560:A2 *167:41 0
52 *4560:B1 *4565:A 9.47454e-05
53 *149:22 *167:20 0.000952974
54 *149:22 *167:26 0.000842413
55 *150:10 *4472:A2 2.92496e-05
56 *150:32 *4472:A2 6.81315e-05
57 *153:10 *4472:A2 0
58 *158:28 *167:41 0.000226774
*RES
1 *4467:Y *167:12 12.14 
2 *167:12 *167:14 0.795 
3 *167:14 *167:20 17.385 
4 *167:20 *167:26 19.715 
5 *167:26 *4540:B1 12.915 
6 *167:26 *167:41 16.935 
7 *167:41 *4559:A2 3.6 
8 *167:41 *4565:A 26.475 
9 *167:20 *4524:A1 1.6 
10 *167:14 *4513:A2 1.6 
11 *167:12 *4472:A2 21.635 
*END

*D_NET *168 0.00821431
*CONN
*I *4472:A3 I *D sky130_fd_sc_hd__a31o_1
*I *4525:A2 I *D sky130_fd_sc_hd__a2111o_1
*I *4524:A2 I *D sky130_fd_sc_hd__o211a_1
*I *4496:C1 I *D sky130_fd_sc_hd__o211a_1
*I *4468:Y O *D sky130_fd_sc_hd__nand2b_4
*CAP
1 *4472:A3 0.00079876
2 *4525:A2 8.27813e-05
3 *4524:A2 0.00054208
4 *4496:C1 0
5 *4468:Y 0.000240259
6 *168:36 0.00109527
7 *168:21 0.000994281
8 *168:10 0.000478727
9 *4472:A3 *4518:C1 0
10 *4472:A3 *4525:B1 1.67513e-05
11 *4472:A3 *4562:A 0.000122331
12 *4472:A3 *4562:C 2.04147e-05
13 *4472:A3 *172:10 3.45679e-05
14 *4472:A3 *174:21 4.83241e-05
15 *4472:A3 *228:14 0
16 *4524:A2 *4524:B1 3.26889e-05
17 *4525:A2 *4476:A 0.000105988
18 *4525:A2 *4511:A3 0.00015356
19 *4525:A2 *4525:B1 4.22316e-06
20 *4525:A2 *181:34 3.09164e-05
21 *168:10 *4496:B1 5.53249e-06
22 *168:10 *4497:B1 5.4256e-05
23 *168:10 *193:29 0
24 *168:10 *223:32 0
25 *168:21 *181:34 0.000204463
26 *168:21 *190:21 0.000427094
27 *168:21 *193:16 4.85494e-05
28 *168:21 *228:20 0.000464004
29 *168:21 *230:56 0
30 *168:36 *4511:A3 0.000146703
31 *168:36 *181:34 0.000160665
32 *168:36 *228:14 8.0118e-05
33 *168:36 *228:20 5.12946e-05
34 *4516:C_N *4472:A3 0
35 *4519:B1 *4472:A3 0.000670025
36 *161:20 *4472:A3 0
37 *167:20 *4524:A2 0.00106712
38 *167:26 *4524:A2 3.25635e-05
*RES
1 *4468:Y *168:10 9.785 
2 *168:10 *4496:C1 1.6 
3 *168:10 *168:21 10.34 
4 *168:21 *4524:A2 14.07 
5 *168:21 *168:36 4.8525 
6 *168:36 *4525:A2 6.1275 
7 *168:36 *4472:A3 19.1475 
*END

*D_NET *169 0.00972599
*CONN
*I *4536:A I *D sky130_fd_sc_hd__and3_4
*I *4530:A2 I *D sky130_fd_sc_hd__a32o_1
*I *4562:B I *D sky130_fd_sc_hd__or3_1
*I *4515:B1 I *D sky130_fd_sc_hd__a22o_4
*I *4469:Y O *D sky130_fd_sc_hd__nand2_2
*CAP
1 *4536:A 0.000348522
2 *4530:A2 0.000503957
3 *4562:B 3.38751e-05
4 *4515:B1 0.000232166
5 *4469:Y 0.000259561
6 *169:46 0.00157047
7 *169:16 0.000439536
8 *169:10 0.00115105
9 *4515:B1 *4475:A 0.000160635
10 *4515:B1 *4515:B2 2.16833e-05
11 *4515:B1 *4562:A 0.000140905
12 *4515:B1 *4563:A1 0
13 *4515:B1 *186:16 0.0003015
14 *4515:B1 *232:37 0.000107651
15 *4515:B1 *236:27 0.00012657
16 *4536:A *4536:B 0
17 *4536:A *4549:B1 0.000118527
18 *4562:B *187:14 4.82863e-05
19 *169:10 *4482:A 0.000159741
20 *169:10 *4508:A1 6.65725e-05
21 *169:10 *4648:A 0.000349726
22 *169:10 *232:37 0.000181376
23 *169:16 *4563:A1 0
24 *169:16 *4648:A 2.92496e-05
25 *169:16 *232:37 0.000158117
26 *169:46 *4648:A 0.00171405
27 *4507:B *4530:A2 0.000590947
28 *4507:B *4536:A 0.000127998
29 *4515:A2 *4515:B1 4.82919e-05
30 *4532:A2 *4530:A2 0.000421298
31 *4563:A0 *4515:B1 8.53113e-06
32 *4563:A0 *169:16 0.000139245
33 *64:41 *4536:A 4.72876e-05
34 *69:27 *4536:A 5.70402e-05
35 *77:10 *4515:B1 6.16204e-05
36 *150:10 *169:10 0
*RES
1 *4469:Y *169:10 10.305 
2 *169:10 *169:16 4.23 
3 *169:16 *4515:B1 11.055 
4 *169:16 *4562:B 4.05 
5 *169:10 *169:46 19.975 
6 *169:46 *4530:A2 16.2 
7 *169:46 *4536:A 9.81 
*END

*D_NET *170 0.00665957
*CONN
*I *4508:A1 I *D sky130_fd_sc_hd__a32o_1
*I *4515:B2 I *D sky130_fd_sc_hd__a22o_4
*I *4509:C I *D sky130_fd_sc_hd__and3_1
*I *4470:X O *D sky130_fd_sc_hd__or2_4
*CAP
1 *4508:A1 0.00112908
2 *4515:B2 0.000194021
3 *4509:C 0.00041031
4 *4470:X 0
5 *170:8 0.00114573
6 *170:6 0.00167048
7 *4508:A1 *4482:A 6.16148e-05
8 *4508:A1 *4495:B 0.000138175
9 *4508:A1 *182:10 0.000397663
10 *4508:A1 *195:16 2.96334e-05
11 *4508:A1 *232:61 0.000196376
12 *4508:A1 *236:27 0
13 *4509:C *222:10 0.00051744
14 *4509:C *230:22 0
15 *4509:C *230:24 0
16 *4509:C *236:12 4.10827e-05
17 *4515:B2 *222:10 1.08758e-05
18 *4515:B2 *236:14 5.30673e-05
19 *4515:B2 *236:27 1.12578e-05
20 *170:8 *230:22 0
21 *170:8 *236:12 0
22 *170:8 *236:27 0
23 *4508:A3 *4508:A1 0.000124895
24 *4508:B1 *4508:A1 8.40213e-05
25 *4512:A3 *4509:C 0.000164874
26 *4515:A2 *4509:C 0
27 *4515:A2 *4515:B2 0.000163204
28 *4515:B1 *4515:B2 2.16833e-05
29 *4617:A *4508:A1 0
30 *4617:A *170:8 0
31 *69:27 *4508:A1 2.75145e-05
32 *169:10 *4508:A1 6.65725e-05
*RES
1 *4470:X *170:6 3.6 
2 *170:6 *170:8 8.775 
3 *170:8 *4509:C 12.69 
4 *170:8 *4515:B2 7.185 
5 *170:6 *4508:A1 22.2 
*END

*D_NET *171 0.00182394
*CONN
*I *4472:B1 I *D sky130_fd_sc_hd__a31o_1
*I *4471:X O *D sky130_fd_sc_hd__a41o_1
*CAP
1 *4472:B1 0.000401589
2 *4471:X 0.000401589
3 *4472:B1 *4562:A 0.000200615
4 *4472:B1 *222:10 0.000468926
5 *4472:B1 *230:143 0.000259541
6 *4472:A2 *4472:B1 4.66108e-05
7 *4512:A3 *4472:B1 2.66935e-05
8 *153:8 *4472:B1 1.83756e-05
9 *153:10 *4472:B1 0
*RES
1 *4471:X *4472:B1 17.25 
*END

*D_NET *172 0.00213993
*CONN
*I *4563:S I *D sky130_fd_sc_hd__mux2_1
*I *4475:A I *D sky130_fd_sc_hd__nand2_1
*I *4472:X O *D sky130_fd_sc_hd__a31o_1
*CAP
1 *4563:S 0.000101642
2 *4475:A 7.15848e-05
3 *4472:X 0.000181379
4 *172:10 0.000354605
5 *4475:A *186:16 0.000134314
6 *4563:S *232:37 0.000180314
7 *172:10 *4562:A 9.27255e-06
8 *172:10 *232:37 2.11552e-05
9 *4472:A2 *172:10 3.00381e-05
10 *4472:A3 *172:10 3.45679e-05
11 *4515:B1 *4475:A 0.000160635
12 *77:10 *4475:A 0.000385327
13 *150:10 *4563:S 0.000337524
14 *150:10 *172:10 0.000137571
*RES
1 *4472:X *172:10 6.72 
2 *172:10 *4475:A 7.155 
3 *172:10 *4563:S 7.53 
*END

*D_NET *173 0.0251776
*CONN
*I *4563:A1 I *D sky130_fd_sc_hd__mux2_1
*I *4475:B I *D sky130_fd_sc_hd__nand2_1
*I *4521:C1 I *D sky130_fd_sc_hd__o2111a_1
*I *4488:A I *D sky130_fd_sc_hd__nor2_4
*I *4479:B I *D sky130_fd_sc_hd__nor2_4
*I *4502:B I *D sky130_fd_sc_hd__nand2_2
*I *4572:A2 I *D sky130_fd_sc_hd__a311o_1
*I *4543:A1 I *D sky130_fd_sc_hd__a31o_1
*I *4551:D1 I *D sky130_fd_sc_hd__o2111a_1
*I *4474:A I *D sky130_fd_sc_hd__inv_1
*I *4473:X O *D sky130_fd_sc_hd__mux2_8
*CAP
1 *4563:A1 0.000451094
2 *4475:B 9.71884e-06
3 *4521:C1 0
4 *4488:A 0.000445558
5 *4479:B 0
6 *4502:B 0
7 *4572:A2 0.000314166
8 *4543:A1 0.000402709
9 *4551:D1 0
10 *4474:A 6.03025e-06
11 *4473:X 0.00212359
12 *173:166 0.000923464
13 *173:119 0.000402245
14 *173:104 0.000557759
15 *173:100 0.000318104
16 *173:94 0.00150199
17 *173:81 0.00170521
18 *173:63 0.00122409
19 *173:49 0.000858942
20 *173:38 0.000143996
21 *173:36 0.00218946
22 *4474:A *4511:A3 2.05864e-05
23 *4474:A *227:22 2.05864e-05
24 *4475:B *4484:B1 4.82919e-05
25 *4488:A *4488:B 9.62444e-05
26 *4488:A *4548:A1 3.94614e-05
27 *4488:A *186:57 0.000108586
28 *4488:A *224:20 0.00017688
29 *4488:A *224:28 0.000292059
30 *4488:A *224:80 0.000412582
31 *4543:A1 *4502:A 1.52184e-05
32 *4543:A1 *4505:A 5.6361e-05
33 *4543:A1 *4542:B1 5.12017e-06
34 *4543:A1 *4570:A2 0
35 *4543:A1 *179:12 9.79559e-05
36 *4563:A1 *4562:A 0
37 *4563:A1 *4562:C 8.15598e-05
38 *4563:A1 *4651:A 0
39 *4572:A2 *194:10 8.71079e-05
40 *173:36 *4449:C 0.000352161
41 *173:36 *4511:B1 1.15773e-05
42 *173:36 *227:16 7.1219e-05
43 *173:36 *232:37 5.44892e-05
44 *173:38 *4511:A1 6.9117e-05
45 *173:38 *4525:B1 7.09999e-05
46 *173:49 *4511:A1 4.43871e-06
47 *173:49 *4525:B1 2.23407e-05
48 *173:49 *174:21 4.75576e-05
49 *173:63 *4499:B2 8.25609e-05
50 *173:63 *4510:A2 0.000774787
51 *173:63 *4552:A3 0.000158072
52 *173:63 *4552:B1 0.0001947
53 *173:63 *176:14 0.000136884
54 *173:81 *4552:A1 0.000147953
55 *173:81 *4673:A 0.000323402
56 *173:81 *176:6 3.41305e-05
57 *173:81 *176:14 1.41559e-05
58 *173:81 *238:10 2.49909e-05
59 *173:94 *224:28 8.73389e-06
60 *173:100 *224:28 8.99706e-05
61 *173:104 *4502:A 8.07863e-05
62 *173:104 *4575:B1 4.43871e-06
63 *173:104 *179:12 8.53245e-05
64 *173:119 *4502:A 0.00054457
65 *173:166 *4514:B2 0.00012476
66 *173:166 *4562:A 0
67 *173:166 *4562:C 0.000495239
68 *173:166 *174:21 2.60986e-05
69 *173:166 *232:37 0
70 *4449:B *173:36 2.30292e-05
71 *4465:B *173:100 0.000160641
72 *4466:C1 *4488:A 0.000489651
73 *4497:A1 *173:63 1.07797e-05
74 *4504:B *4488:A 0.000226855
75 *4512:B2 *173:36 4.43682e-05
76 *4514:A2_N *173:63 2.75145e-05
77 *4514:B1 *173:36 0
78 *4514:B1 *173:49 4.32778e-05
79 *4514:B1 *173:166 2.97004e-06
80 *4515:B1 *4563:A1 0
81 *4529:A1 *173:81 0.000114492
82 *4543:A2 *4543:A1 3.00381e-05
83 *4544:A1 *173:100 3.04189e-05
84 *4547:A1 *4488:A 0
85 *4548:B1 *4488:A 0
86 *4548:B1 *4543:A1 4.92062e-05
87 *4551:A1 *173:94 5.37018e-05
88 *4551:A2 *173:81 0.000237243
89 *4551:A2 *173:94 5.36407e-05
90 *4551:C1 *173:81 0.000103554
91 *4555:A2 *173:36 0.000274654
92 *4555:B1 *4572:A2 0.000158066
93 *4556:A2 *173:81 1.47256e-05
94 *4556:C1 *173:81 4.43682e-05
95 *4556:C1 *173:94 1.16578e-05
96 *4563:A0 *4563:A1 4.66108e-05
97 *4571:B1 *4543:A1 0.000117832
98 *4572:A1 *4572:A2 4.66108e-05
99 *4572:A3 *4572:A2 3.13354e-05
100 *4572:B1 *4572:A2 3.20603e-05
101 *4572:C1 *4543:A1 0
102 *4572:C1 *4572:A2 2.30292e-05
103 *4623:A *173:81 4.06489e-05
104 *68:10 *4543:A1 6.55328e-05
105 *77:10 *4475:B 4.82919e-05
106 *120:16 *4563:A1 0.000278117
107 *143:33 *173:63 0.000366471
108 *145:22 *173:36 2.16833e-05
109 *149:10 *173:36 0.000601086
110 *149:22 *173:36 8.53113e-06
111 *149:28 *4543:A1 3.00381e-05
112 *154:27 *4543:A1 0.000189426
113 *155:14 *173:36 0.000593675
114 *155:20 *173:81 0.00040617
115 *157:68 *173:81 0.00011893
116 *158:28 *173:119 4.35348e-05
117 *161:39 *173:81 5.23362e-05
118 *164:19 *173:119 0.000618615
119 *169:16 *4563:A1 0
*RES
1 *4473:X *173:36 49.145 
2 *173:36 *173:38 1.635 
3 *173:38 *4474:A 3.79875 
4 *173:38 *173:49 1.635 
5 *173:49 *173:63 18.12 
6 *173:63 *173:81 22.39 
7 *173:81 *4551:D1 1.6 
8 *173:81 *173:94 9.81 
9 *173:94 *173:100 4.53 
10 *173:100 *173:104 3.89 
11 *173:104 *4543:A1 12.69 
12 *173:104 *173:119 7.625 
13 *173:119 *4572:A2 11.525 
14 *173:119 *4502:B 1.6 
15 *173:100 *4479:B 1.6 
16 *173:94 *4488:A 19.475 
17 *173:63 *4521:C1 1.6 
18 *173:49 *173:166 10.815 
19 *173:166 *4475:B 4.05 
20 *173:166 *4563:A1 11.775 
*END

*D_NET *174 0.00373018
*CONN
*I *4562:C I *D sky130_fd_sc_hd__or3_1
*I *4514:A1_N I *D sky130_fd_sc_hd__a2bb2o_1
*I *4525:B1 I *D sky130_fd_sc_hd__a2111o_1
*I *4474:Y O *D sky130_fd_sc_hd__inv_1
*CAP
1 *4562:C 0.000569638
2 *4514:A1_N 0
3 *4525:B1 0.000246191
4 *4474:Y 7.3993e-05
5 *174:21 0.000629405
6 *174:8 0.000379952
7 *4525:B1 *4476:A 0.000132842
8 *4562:C *187:14 0.000184866
9 *174:8 *227:22 0.000103185
10 *4472:A3 *4525:B1 1.67513e-05
11 *4472:A3 *4562:C 2.04147e-05
12 *4472:A3 *174:21 4.83241e-05
13 *4516:C_N *4562:C 0
14 *4519:B1 *4562:C 0.000345381
15 *4525:A2 *4525:B1 4.22316e-06
16 *4555:A2 *4525:B1 0.000231217
17 *4563:A1 *4562:C 8.15598e-05
18 *77:10 *4562:C 0
19 *173:38 *4525:B1 7.09999e-05
20 *173:49 *4525:B1 2.23407e-05
21 *173:49 *174:21 4.75576e-05
22 *173:166 *4562:C 0.000495239
23 *173:166 *174:21 2.60986e-05
*RES
1 *4474:Y *174:8 4.5675 
2 *174:8 *4525:B1 7.92 
3 *174:8 *174:21 1.635 
4 *174:21 *4514:A1_N 3.6 
5 *174:21 *4562:C 18.555 
*END

*D_NET *175 0.00142118
*CONN
*I *4484:B1 I *D sky130_fd_sc_hd__o32a_1
*I *4475:Y O *D sky130_fd_sc_hd__nand2_1
*CAP
1 *4484:B1 0.000186713
2 *4475:Y 0.000186713
3 *4484:B1 *186:16 0.000732639
4 *4484:B1 *186:37 2.65814e-06
5 *4475:B *4484:B1 4.82919e-05
6 *4484:B2 *4484:B1 1.85674e-05
7 *77:10 *4484:B1 0.000245599
*RES
1 *4475:Y *4484:B1 10.22 
*END

*D_NET *176 0.0048385
*CONN
*I *4521:D1 I *D sky130_fd_sc_hd__o2111a_1
*I *4520:A1 I *D sky130_fd_sc_hd__a22o_1
*I *4478:A2 I *D sky130_fd_sc_hd__a21oi_1
*I *4476:Y O *D sky130_fd_sc_hd__nand2_2
*CAP
1 *4521:D1 0
2 *4520:A1 0.000421818
3 *4478:A2 0
4 *4476:Y 8.16258e-05
5 *176:14 0.000828248
6 *176:6 0.000488055
7 *4520:A1 *4483:A 0.00011852
8 *4520:A1 *4499:B2 0.000141865
9 *4520:A1 *4536:B 3.69989e-05
10 *4520:A1 *182:16 0
11 *4520:A1 *195:16 4.87317e-05
12 *4520:A1 *195:24 0.000245517
13 *176:6 *4476:A 8.8266e-05
14 *176:6 *4552:A1 5.82176e-05
15 *176:6 *4673:A 8.16963e-05
16 *176:6 *219:59 3.38425e-05
17 *176:6 *227:22 0.000296167
18 *176:14 *4499:B2 0.000252373
19 *176:14 *4673:A 1.32064e-05
20 *176:14 *195:24 0.000226196
21 *4476:B *176:6 8.49205e-05
22 *4497:A1 *176:14 0.000136884
23 *4507:B *4520:A1 0.000272984
24 *64:24 *4520:A1 6.58423e-05
25 *64:28 *4520:A1 0
26 *150:32 *176:14 0.000135532
27 *163:75 *176:14 0.000137571
28 *163:77 *176:14 0.00035825
29 *173:63 *176:14 0.000136884
30 *173:81 *176:6 3.41305e-05
31 *173:81 *176:14 1.41559e-05
*RES
1 *4476:Y *176:6 5.1325 
2 *176:6 *176:14 14.6675 
3 *176:14 *4478:A2 3.6 
4 *176:14 *4520:A1 14.64 
5 *176:6 *4521:D1 1.6 
*END

*D_NET *177 0.0210599
*CONN
*I *4574:A2 I *D sky130_fd_sc_hd__a22o_1
*I *4478:B1 I *D sky130_fd_sc_hd__a21oi_1
*I *4518:A2 I *D sky130_fd_sc_hd__a211o_1
*I *4517:B I *D sky130_fd_sc_hd__nor2_1
*I *4552:B1 I *D sky130_fd_sc_hd__a32o_1
*I *4511:A2 I *D sky130_fd_sc_hd__o31ai_1
*I *4528:B I *D sky130_fd_sc_hd__nand2_1
*I *4573:A I *D sky130_fd_sc_hd__nand2_1
*I *4576:B1 I *D sky130_fd_sc_hd__a311o_1
*I *4477:Y O *D sky130_fd_sc_hd__a21oi_4
*CAP
1 *4574:A2 0
2 *4478:B1 0.000139252
3 *4518:A2 1.86282e-05
4 *4517:B 0
5 *4552:B1 0.000186035
6 *4511:A2 0.000767263
7 *4528:B 2.2211e-05
8 *4573:A 8.95845e-06
9 *4576:B1 0
10 *4477:Y 0.00155544
11 *177:93 1.86282e-05
12 *177:71 0.00107287
13 *177:69 0.000191553
14 *177:67 0.0018533
15 *177:52 0.00240447
16 *177:35 0.000789352
17 *177:26 0.000196713
18 *177:14 0.00171195
19 *4478:B1 *4484:A1 8.23457e-05
20 *4478:B1 *4484:A2 2.45991e-05
21 *4478:B1 *182:20 0.000328213
22 *4511:A2 *4499:B2 2.46007e-05
23 *4511:A2 *4530:B1 0.000197365
24 *4552:B1 *4552:A3 7.09369e-05
25 *177:14 *4545:B 1.56651e-05
26 *177:14 *218:16 0
27 *177:14 *230:80 0.000273878
28 *177:14 *234:63 0.000862732
29 *177:14 *238:38 7.58604e-05
30 *177:26 *4576:A1 7.0105e-05
31 *177:26 *238:40 0.000118081
32 *177:52 *224:14 8.34281e-06
33 *177:52 *224:18 4.35348e-05
34 *177:67 *4519:A1 2.86298e-05
35 *177:69 *182:20 0.000207998
36 *177:71 *4530:B1 0.000333496
37 *177:71 *182:20 0.00033517
38 *4466:C1 *177:52 0.00069176
39 *4476:B *4511:A2 7.17811e-05
40 *4476:B *177:71 1.71207e-05
41 *4484:B2 *4478:B1 8.23457e-05
42 *4484:B2 *177:52 7.9642e-06
43 *4503:A *177:14 0.000155601
44 *4503:A *177:26 0.000131168
45 *4503:B *177:14 0.000536491
46 *4518:A1 *4518:A2 0.0001249
47 *4518:B1 *4518:A2 0.0001249
48 *4519:A3 *4478:B1 0.00014971
49 *4519:A3 *177:69 0.000150617
50 *4520:B1 *4478:B1 0.00013521
51 *4527:A1 *177:52 6.97118e-05
52 *4551:A1 *4528:B 0
53 *4572:A1 *177:14 0.000145113
54 *4576:C1 *4573:A 1.90686e-05
55 *4576:C1 *177:26 1.31519e-05
56 *4576:C1 *177:35 3.45252e-05
57 *4576:C1 *177:52 1.91597e-05
58 *4577:B1 *177:26 0.00011099
59 *4578:B *177:26 0.000204118
60 *4578:B *177:35 6.07575e-06
61 *151:12 *4528:B 0
62 *151:12 *177:52 1.03755e-05
63 *155:14 *4511:A2 0.00099682
64 *163:30 *177:14 0.000596026
65 *163:43 *177:14 8.52845e-05
66 *163:43 *177:26 2.0231e-05
67 *163:52 *177:26 2.68338e-05
68 *163:52 *177:35 8.23457e-05
69 *163:52 *177:52 0.00200763
70 *173:63 *4552:B1 0.0001947
*RES
1 *4477:Y *177:14 35.24 
2 *177:14 *177:26 8.785 
3 *177:26 *4576:B1 1.6 
4 *177:26 *177:35 1.155 
5 *177:35 *4573:A 1.96 
6 *177:35 *177:52 21.3936 
7 *177:52 *4528:B 4.3325 
8 *177:52 *177:67 3.39307 
9 *177:67 *177:69 2.5275 
10 *177:69 *177:71 4.44 
11 *177:71 *4511:A2 15.2475 
12 *177:71 *4552:B1 6.6375 
13 *177:69 *177:93 2 
14 *177:93 *4517:B 1.6 
15 *177:93 *4518:A2 2.74 
16 *177:67 *4478:B1 8.4525 
17 *177:14 *4574:A2 1.6 
*END

*D_NET *178 0.000332185
*CONN
*I *4484:A1 I *D sky130_fd_sc_hd__o32a_1
*I *4478:Y O *D sky130_fd_sc_hd__a21oi_1
*CAP
1 *4484:A1 7.69147e-05
2 *4478:Y 7.69147e-05
3 *4484:A1 *186:37 7.28446e-05
4 *4478:B1 *4484:A1 8.23457e-05
5 *4484:B2 *4484:A1 2.31651e-05
*RES
1 *4478:Y *4484:A1 5.06 
*END

*D_NET *179 0.0102094
*CONN
*I *4514:B2 I *D sky130_fd_sc_hd__a2bb2o_1
*I *4480:A I *D sky130_fd_sc_hd__inv_1
*I *4524:B1 I *D sky130_fd_sc_hd__o211a_1
*I *4556:A1 I *D sky130_fd_sc_hd__a211o_1
*I *4571:C1 I *D sky130_fd_sc_hd__o211a_1
*I *4542:B1 I *D sky130_fd_sc_hd__o311a_1
*I *4479:Y O *D sky130_fd_sc_hd__nor2_4
*CAP
1 *4514:B2 0.000481014
2 *4480:A 0.000132207
3 *4524:B1 0.000434551
4 *4556:A1 1.85694e-05
5 *4571:C1 0
6 *4542:B1 0.000120098
7 *4479:Y 0
8 *179:64 0.00133762
9 *179:47 0.00205758
10 *179:38 0.00181798
11 *179:12 0.000356188
12 *179:6 0.00113687
13 *4480:A *4518:C1 2.05864e-05
14 *4480:A *4530:B1 0
15 *4514:B2 *228:12 0.000262868
16 *4514:B2 *232:37 0
17 *4524:B1 *195:32 0.000709364
18 *4542:B1 *4570:A2 2.7881e-05
19 *179:12 *4570:A2 8.89751e-05
20 *179:12 *4575:B1 0
21 *179:38 *4575:B1 0
22 *4465:A *4542:B1 2.54431e-05
23 *4524:A2 *4524:B1 3.26889e-05
24 *4524:C1 *4524:B1 4.82863e-05
25 *4542:C1 *4542:B1 6.68594e-05
26 *4543:A1 *4542:B1 5.12017e-06
27 *4543:A1 *179:12 9.79559e-05
28 *4548:B1 *179:12 8.41833e-05
29 *4556:A2 *4556:A1 9.53428e-06
30 *4556:A2 *179:38 2.75229e-05
31 *4556:A2 *179:47 0.000254505
32 *4571:B1 *4542:B1 5.53249e-06
33 *4571:B1 *179:12 5.7344e-05
34 *4626:A *4524:B1 0
35 *68:10 *4542:B1 3.09164e-05
36 *164:19 *179:12 8.97642e-05
37 *164:19 *179:38 5.53249e-06
38 *164:32 *179:38 0.000111096
39 *167:26 *4524:B1 4.47209e-05
40 *173:104 *179:12 8.53245e-05
41 *173:166 *4514:B2 0.00012476
*RES
1 *4479:Y *179:6 3.6 
2 *179:6 *179:12 6.78 
3 *179:12 *4542:B1 5.97 
4 *179:12 *4571:C1 3.6 
5 *179:6 *179:38 14.855 
6 *179:38 *4556:A1 1.96 
7 *179:38 *179:47 12.87 
8 *179:47 *4524:B1 15.365 
9 *179:47 *179:64 9.075 
10 *179:64 *4480:A 7.43375 
11 *179:64 *4514:B2 13.88 
*END

*D_NET *180 0.00145732
*CONN
*I *4484:A2 I *D sky130_fd_sc_hd__o32a_1
*I *4480:Y O *D sky130_fd_sc_hd__inv_1
*CAP
1 *4484:A2 0.000403406
2 *4480:Y 0.000403406
3 *4484:A2 *4516:B 9.47454e-05
4 *4484:A2 *4518:C1 2.33514e-05
5 *4484:A2 *4519:A1 3.96153e-05
6 *4484:A2 *4519:B2 0
7 *4478:B1 *4484:A2 2.45991e-05
8 *4518:A1 *4484:A2 5.30673e-05
9 *4518:B1 *4484:A2 2.66586e-05
10 *4519:A3 *4484:A2 0.000295393
11 *4520:B1 *4484:A2 9.30787e-05
12 *161:20 *4484:A2 0
*RES
1 *4480:Y *4484:A2 14.7525 
*END

*D_NET *181 0.0090161
*CONN
*I *4511:A3 I *D sky130_fd_sc_hd__o31ai_1
*I *4525:C1 I *D sky130_fd_sc_hd__a2111o_1
*I *4533:A I *D sky130_fd_sc_hd__nor2_2
*I *4553:B I *D sky130_fd_sc_hd__or3b_1
*I *4492:A1 I *D sky130_fd_sc_hd__o21a_1
*I *4491:A I *D sky130_fd_sc_hd__nor2_1
*I *4481:Y O *D sky130_fd_sc_hd__nor2_4
*CAP
1 *4511:A3 0.000155982
2 *4525:C1 0
3 *4533:A 7.26354e-05
4 *4553:B 6.62387e-05
5 *4492:A1 0.000295455
6 *4491:A 9.73191e-06
7 *4481:Y 8.84212e-05
8 *181:46 0.000814479
9 *181:38 0.000706682
10 *181:34 0.000364291
11 *181:23 0.000906599
12 *181:8 0.000532065
13 *4491:A *190:21 4.82863e-05
14 *4491:A *193:16 4.82863e-05
15 *4511:A3 *4476:A 0.000120655
16 *4511:A3 *4511:A1 1.35948e-05
17 *4511:A3 *227:22 0.000149108
18 *4533:A *4553:C_N 0.000137578
19 *4533:A *194:46 0.000194258
20 *4553:B *4553:C_N 0.000164679
21 *4553:B *194:46 0.000233231
22 *181:8 *190:12 0.000185398
23 *181:8 *230:56 0
24 *181:23 *4513:B1 5.51158e-05
25 *181:23 *190:12 8.53113e-06
26 *181:23 *230:56 0
27 *181:34 *230:56 0
28 *181:38 *219:38 2.49909e-05
29 *181:38 *219:42 4.35348e-05
30 *181:46 *219:42 8.82557e-05
31 *4474:A *4511:A3 2.05864e-05
32 *4525:A2 *4511:A3 0.00015356
33 *4525:A2 *181:34 3.09164e-05
34 *4526:C_N *181:46 0.000690878
35 *4555:A2 *181:38 0.000122325
36 *4555:A2 *181:46 0.00154198
37 *149:22 *4553:B 0
38 *155:14 *4511:A3 0.000415935
39 *161:58 *4533:A 0
40 *161:58 *4553:B 0
41 *168:21 *181:34 0.000204463
42 *168:36 *4511:A3 0.000146703
43 *168:36 *181:34 0.000160665
*RES
1 *4481:Y *181:8 5.745 
2 *181:8 *4491:A 4.05 
3 *181:8 *181:23 8.735 
4 *181:23 *4492:A1 5.845 
5 *181:23 *181:34 6.185 
6 *181:34 *181:38 3.14 
7 *181:38 *181:46 20.855 
8 *181:46 *4553:B 6.255 
9 *181:46 *4533:A 6 
10 *181:38 *4525:C1 1.6 
11 *181:34 *4511:A3 9.39 
*END

*D_NET *182 0.0115734
*CONN
*I *4506:B I *D sky130_fd_sc_hd__and3_4
*I *4483:B I *D sky130_fd_sc_hd__nor2_1
*I *4510:A2 I *D sky130_fd_sc_hd__a21oi_1
*I *4552:A3 I *D sky130_fd_sc_hd__a32o_1
*I *4482:X O *D sky130_fd_sc_hd__or2_4
*CAP
1 *4506:B 0.000405657
2 *4483:B 2.32169e-05
3 *4510:A2 0.00107635
4 *4552:A3 0.000137768
5 *4482:X 0.000478381
6 *182:20 0.00154543
7 *182:16 0.000729059
8 *182:10 0.00125856
9 *4483:B *183:10 2.75229e-05
10 *4506:B *4653:A 9.05299e-05
11 *4510:A2 *4530:B1 7.47145e-05
12 *4510:A2 *219:8 0
13 *182:10 *4653:A 8.65961e-05
14 *182:10 *4654:A 0.00043044
15 *182:16 *4499:B2 2.15594e-05
16 *182:16 *4519:A1 0.000172838
17 *182:20 *4499:B2 0.000204486
18 *182:20 *4519:A1 0.000319127
19 *4476:B *182:20 0.00033517
20 *4478:B1 *182:20 0.000328213
21 *4506:C *4506:B 3.00381e-05
22 *4508:A1 *182:10 0.000397663
23 *4508:A3 *182:10 7.35729e-05
24 *4512:B1 *4510:A2 7.29556e-05
25 *4514:A2_N *4510:A2 0.000123835
26 *4520:A1 *182:16 0
27 *4520:A2 *182:16 5.93588e-05
28 *4520:B1 *182:16 0.000320104
29 *4520:B1 *182:20 7.81221e-05
30 *4552:B1 *4552:A3 7.09369e-05
31 *64:28 *182:16 0.000161623
32 *64:41 *182:16 5.16348e-05
33 *69:10 *4506:B 0
34 *69:27 *182:10 0.0001249
35 *143:33 *4510:A2 0.000340387
36 *143:33 *4552:A3 0.000415929
37 *157:68 *4552:A3 3.06427e-05
38 *173:63 *4510:A2 0.000774787
39 *173:63 *4552:A3 0.000158072
40 *177:69 *182:20 0.000207998
41 *177:71 *182:20 0.00033517
*RES
1 *4482:X *182:10 15.105 
2 *182:10 *182:16 9.33 
3 *182:16 *182:20 14.09 
4 *182:20 *4552:A3 5.86 
5 *182:20 *4510:A2 21.545 
6 *182:16 *4483:B 4.05 
7 *182:10 *4506:B 9.99 
*END

*D_NET *183 0.00137979
*CONN
*I *4484:A3 I *D sky130_fd_sc_hd__o32a_1
*I *4516:B I *D sky130_fd_sc_hd__or3b_1
*I *4483:Y O *D sky130_fd_sc_hd__nor2_1
*CAP
1 *4484:A3 0
2 *4516:B 0.000200544
3 *4483:Y 0.000213113
4 *183:10 0.000413657
5 *4516:B *4519:B2 2.46089e-05
6 *4516:B *186:16 1.94723e-05
7 *183:10 *4499:A1_N 7.06865e-05
8 *183:10 *186:16 3.17398e-05
9 *183:10 *187:14 2.65814e-06
10 *4483:B *183:10 2.75229e-05
11 *4484:A2 *4516:B 9.47454e-05
12 *4520:B1 *4516:B 1.1561e-05
13 *4520:B1 *183:10 3.05646e-05
14 *77:23 *4516:B 0.000238919
*RES
1 *4483:Y *183:10 6.72 
2 *183:10 *4516:B 7.155 
3 *183:10 *4484:A3 3.6 
*END

*D_NET *184 0.000994542
*CONN
*I *4499:A1_N I *D sky130_fd_sc_hd__a2bb2o_1
*I *4484:X O *D sky130_fd_sc_hd__o32a_1
*CAP
1 *4499:A1_N 0.000185808
2 *4484:X 0.000185808
3 *4499:A1_N *187:14 0.000138544
4 *4484:B2 *4499:A1_N 0.000122337
5 *4520:B1 *4499:A1_N 0.000291358
6 *183:10 *4499:A1_N 7.06865e-05
*RES
1 *4484:X *4499:A1_N 11.76 
*END

*D_NET *185 0.00436235
*CONN
*I *4486:B1 I *D sky130_fd_sc_hd__o21ai_4
*I *4487:B1 I *D sky130_fd_sc_hd__o21a_1
*I *4485:X O *D sky130_fd_sc_hd__or2_4
*CAP
1 *4486:B1 1.34399e-05
2 *4487:B1 0.000245259
3 *4485:X 0.00133236
4 *185:12 0.00159105
5 *4486:B1 *4487:A2 0
6 *4487:B1 *4487:A2 5.14357e-05
7 *185:12 *4487:A2 0.000122155
8 *185:12 *4501:A2 0
9 *185:12 *233:18 0
10 *4486:A1 *185:12 8.8266e-05
11 *4487:A1 *4486:B1 0
12 *4487:A1 *4487:B1 6.26016e-05
13 *4487:A1 *185:12 2.8185e-05
14 *4501:A1 *185:12 0
15 *4501:B1 *185:12 0
16 *54:25 *185:12 0.000765273
17 *162:12 *185:12 6.23206e-05
*RES
1 *4485:X *185:12 30.65 
2 *185:12 *4487:B1 5.095 
3 *185:12 *4486:B1 1.96 
*END

*D_NET *186 0.0185343
*CONN
*I *4532:A1 I *D sky130_fd_sc_hd__a22o_1
*I *4560:A1 I *D sky130_fd_sc_hd__a22o_1
*I *4488:B I *D sky130_fd_sc_hd__nor2_4
*I *4548:B2 I *D sky130_fd_sc_hd__a32o_1
*I *4564:B2 I *D sky130_fd_sc_hd__a2bb2o_1
*I *4577:B2 I *D sky130_fd_sc_hd__a32o_1
*I *4519:B2 I *D sky130_fd_sc_hd__a32o_1
*I *4486:Y O *D sky130_fd_sc_hd__o21ai_4
*CAP
1 *4532:A1 1.89937e-05
2 *4560:A1 0
3 *4488:B 0.000152668
4 *4548:B2 0
5 *4564:B2 0.000315236
6 *4577:B2 0.000203172
7 *4519:B2 0.000101795
8 *4486:Y 0.00206496
9 *186:61 0.00117237
10 *186:57 0.000807599
11 *186:53 0.000826299
12 *186:45 0.000781395
13 *186:37 0.00085062
14 *186:16 0.00273698
15 *4519:B2 *4519:A1 1.32824e-05
16 *4564:B2 *4564:A1_N 4.15208e-05
17 *4564:B2 *4577:A1 0.000581326
18 *4564:B2 *215:10 0.000349094
19 *4577:B2 *4576:A2 0
20 *4577:B2 *4577:A1 0.000159262
21 *186:16 *4444:A 5.05521e-05
22 *186:16 *236:14 0.000131791
23 *186:16 *236:27 0.000278117
24 *186:37 *240:8 8.49955e-05
25 *186:37 *240:58 7.67415e-06
26 *186:45 *4451:A 9.52646e-05
27 *186:45 *240:8 0.000180373
28 *186:53 *4560:B2 9.53428e-06
29 *186:53 *188:56 0.000180216
30 *186:53 *188:67 9.47208e-05
31 *186:61 *4548:A1 0.0001249
32 *186:61 *4575:B1 0.000537188
33 *186:61 *4576:A2 0.000103265
34 *4475:A *186:16 0.000134314
35 *4484:A1 *186:37 7.28446e-05
36 *4484:A2 *4519:B2 0
37 *4484:B1 *186:16 0.000732639
38 *4484:B1 *186:37 2.65814e-06
39 *4484:B2 *186:37 0.00038605
40 *4488:A *4488:B 9.62444e-05
41 *4488:A *186:57 0.000108586
42 *4504:B *186:53 0.000160641
43 *4515:B1 *186:16 0.0003015
44 *4516:B *4519:B2 2.46089e-05
45 *4516:B *186:16 1.94723e-05
46 *4516:C_N *4519:B2 0
47 *4547:A1 *186:57 8.09021e-06
48 *4547:A2 *186:57 0.00015997
49 *4547:A2 *186:61 4.82863e-05
50 *4549:A2 *4488:B 0
51 *4549:A2 *186:57 0
52 *4549:A2 *186:61 3.00381e-05
53 *4559:A3 *186:45 0.000616046
54 *4560:A2 *186:45 6.95505e-05
55 *4560:B1 *186:45 9.54399e-05
56 *4564:A2_N *4564:B2 8.65905e-05
57 *4565:A *186:45 2.4997e-05
58 *4565:A *186:53 7.67415e-06
59 *4565:B *4564:B2 7.01303e-05
60 *4575:A2 *4577:B2 0
61 *64:20 *186:16 9.30787e-05
62 *77:10 *186:16 1.12578e-05
63 *146:10 *186:16 9.14178e-05
64 *150:32 *186:37 0.000979749
65 *150:32 *186:45 0.000179035
66 *161:20 *4519:B2 0
67 *161:80 *186:45 0.000804109
68 *167:41 *186:45 3.24046e-05
69 *183:10 *186:16 3.17398e-05
*RES
1 *4486:Y *186:16 35.395 
2 *186:16 *4519:B2 5.235 
3 *186:16 *186:37 15.8 
4 *186:37 *186:45 16.255 
5 *186:45 *186:53 9.38 
6 *186:53 *186:57 5.42 
7 *186:57 *186:61 15.215 
8 *186:61 *4577:B2 6.54 
9 *186:61 *4564:B2 12.78 
10 *186:57 *4548:B2 1.6 
11 *186:53 *4488:B 6.51 
12 *186:45 *4560:A1 1.6 
13 *186:37 *4532:A1 1.96 
*END

*D_NET *187 0.00665012
*CONN
*I *4499:A2_N I *D sky130_fd_sc_hd__a2bb2o_1
*I *4504:A I *D sky130_fd_sc_hd__and2_4
*I *4487:X O *D sky130_fd_sc_hd__o21a_1
*CAP
1 *4499:A2_N 0
2 *4504:A 0.000589487
3 *4487:X 0.00186454
4 *187:14 0.00245402
5 *4504:A *4499:B2 4.82919e-05
6 *4504:A *4519:A1 4.66108e-05
7 *4504:A *188:82 0.000955661
8 *4499:A1_N *187:14 0.000138544
9 *4520:B1 *187:14 1.1561e-05
10 *4562:B *187:14 4.82863e-05
11 *4562:C *187:14 0.000184866
12 *120:16 *4504:A 0.000267274
13 *120:16 *187:14 3.83194e-05
14 *183:10 *187:14 2.65814e-06
*RES
1 *4487:X *187:14 32.54 
2 *187:14 *4504:A 14.815 
3 *187:14 *4499:A2_N 1.6 
*END

*D_NET *188 0.013202
*CONN
*I *4519:A1 I *D sky130_fd_sc_hd__a32o_1
*I *4499:B1 I *D sky130_fd_sc_hd__a2bb2o_1
*I *4532:B2 I *D sky130_fd_sc_hd__a22o_1
*I *4560:B2 I *D sky130_fd_sc_hd__a22o_1
*I *4548:A1 I *D sky130_fd_sc_hd__a32o_1
*I *4577:A1 I *D sky130_fd_sc_hd__a32o_1
*I *4489:A I *D sky130_fd_sc_hd__inv_1
*I *4488:Y O *D sky130_fd_sc_hd__nor2_4
*CAP
1 *4519:A1 0.000341043
2 *4499:B1 0
3 *4532:B2 0.00013592
4 *4560:B2 1.85694e-05
5 *4548:A1 0.000366489
6 *4577:A1 0.000748822
7 *4489:A 3.67671e-06
8 *4488:Y 0.000489734
9 *188:82 0.000614433
10 *188:67 0.00119657
11 *188:56 0.000879314
12 *188:41 0.000571598
13 *188:10 0.0011106
14 *4519:A1 *4499:B2 0.000495982
15 *4548:A1 *224:80 0.000248268
16 *4577:A1 *4564:A1_N 0.00026012
17 *4577:A1 *215:10 8.73389e-06
18 *4484:A2 *4519:A1 3.96153e-05
19 *4484:B2 *4532:B2 1.70935e-05
20 *4488:A *4548:A1 3.94614e-05
21 *4504:A *4519:A1 4.66108e-05
22 *4504:A *188:82 0.000955661
23 *4504:B *4548:A1 5.4003e-05
24 *4504:B *188:41 0.00016881
25 *4519:B2 *4519:A1 1.32824e-05
26 *4532:B1 *4532:B2 5.53249e-06
27 *4547:A2 *4548:A1 0.000104883
28 *4548:B1 *4548:A1 2.91343e-05
29 *4559:B1 *4548:A1 0
30 *4560:A2 *188:67 8.65905e-05
31 *4564:A2_N *4577:A1 0
32 *4564:B1 *4489:A 2.623e-05
33 *4564:B1 *4577:A1 1.31928e-05
34 *4564:B1 *188:10 0.000817843
35 *4564:B2 *4577:A1 0.000581326
36 *4565:A *188:56 0.000431333
37 *4565:A *188:67 4.82863e-05
38 *4566:B1_N *4577:A1 0
39 *4577:A2 *4577:A1 9.30717e-05
40 *4577:B2 *4577:A1 0.000159262
41 *120:16 *4519:A1 3.57349e-05
42 *120:16 *188:10 5.94962e-05
43 *120:16 *188:82 0.000955661
44 *177:67 *4519:A1 2.86298e-05
45 *182:16 *4519:A1 0.000172838
46 *182:20 *4519:A1 0.000319127
47 *186:53 *4560:B2 9.53428e-06
48 *186:53 *188:56 0.000180216
49 *186:53 *188:67 9.47208e-05
50 *186:61 *4548:A1 0.0001249
*RES
1 *4488:Y *188:10 10.105 
2 *188:10 *4489:A 1.83625 
3 *188:10 *4577:A1 19.67 
4 *4488:Y *188:41 6.255 
5 *188:41 *4548:A1 10.905 
6 *188:41 *188:56 5.9 
7 *188:56 *4560:B2 1.96 
8 *188:56 *188:67 14.18 
9 *188:67 *4532:B2 5.745 
10 *188:67 *188:82 12.62 
11 *188:82 *4499:B1 1.6 
12 *188:82 *4519:A1 13.7093 
*END

*D_NET *189 0.000568558
*CONN
*I *4564:A1_N I *D sky130_fd_sc_hd__a2bb2o_1
*I *4489:Y O *D sky130_fd_sc_hd__inv_1
*CAP
1 *4564:A1_N 6.4482e-05
2 *4489:Y 6.4482e-05
3 *4564:A1_N *215:10 9.80943e-06
4 *4564:A2_N *4564:A1_N 8.65905e-05
5 *4564:B1 *4564:A1_N 4.15527e-05
6 *4564:B2 *4564:A1_N 4.15208e-05
7 *4577:A1 *4564:A1_N 0.00026012
*RES
1 *4489:Y *4564:A1_N 5.9075 
*END

*D_NET *190 0.00696978
*CONN
*I *4492:A2 I *D sky130_fd_sc_hd__o21a_1
*I *4538:B1 I *D sky130_fd_sc_hd__a2111oi_1
*I *4539:A1 I *D sky130_fd_sc_hd__a211o_1
*I *4491:B I *D sky130_fd_sc_hd__nor2_1
*I *4490:X O *D sky130_fd_sc_hd__mux2_8
*CAP
1 *4492:A2 7.85937e-05
2 *4538:B1 6.4737e-05
3 *4539:A1 0
4 *4491:B 0
5 *4490:X 0.000630575
6 *190:33 0.00045917
7 *190:21 0.000973866
8 *190:12 0.00113141
9 *4492:A2 *4492:B1 8.53113e-06
10 *4492:A2 *4496:B1 2.92496e-05
11 *4492:A2 *4530:B1 3.98782e-05
12 *4492:A2 *228:20 0
13 *4538:B1 *194:74 8.53113e-06
14 *190:12 *230:56 0
15 *190:21 *4513:B1 4.82919e-05
16 *190:21 *193:16 0.000338461
17 *190:21 *228:20 1.46744e-05
18 *190:33 *4496:A1 3.15283e-05
19 *190:33 *4496:B1 0.000672092
20 *190:33 *4498:A2 4.60584e-05
21 *190:33 *4498:B1 7.04675e-05
22 *190:33 *4540:B2 0.00086522
23 *190:33 *228:20 5.30673e-05
24 *190:33 *234:20 0.000365298
25 *4491:A *190:21 4.82863e-05
26 *4539:A2 *4538:B1 6.65612e-05
27 *4539:B1 *4538:B1 0.000134509
28 *4540:C1 *4538:B1 4.82863e-05
29 *4540:C1 *190:33 3.64936e-05
30 *161:58 *190:33 8.49205e-05
31 *168:21 *190:21 0.000427094
32 *181:8 *190:12 0.000185398
33 *181:23 *190:12 8.53113e-06
*RES
1 *4490:X *190:12 15.155 
2 *190:12 *4491:B 1.6 
3 *190:12 *190:21 9.78 
4 *190:21 *190:33 15.885 
5 *190:33 *4539:A1 1.6 
6 *190:33 *4538:B1 7.685 
7 *190:21 *4492:A2 7.235 
*END

*D_NET *191 0.000966391
*CONN
*I *4513:B1 I *D sky130_fd_sc_hd__o22a_1
*I *4491:Y O *D sky130_fd_sc_hd__nor2_1
*CAP
1 *4513:B1 0.000227691
2 *4491:Y 0.000227691
3 *4513:B1 *4512:A2 0.000319167
4 *4513:B1 *193:16 5.97713e-05
5 *4513:B1 *230:56 0
6 *149:22 *4513:B1 2.86623e-05
7 *181:23 *4513:B1 5.51158e-05
8 *190:21 *4513:B1 4.82919e-05
*RES
1 *4491:Y *4513:B1 12.015 
*END

*D_NET *192 0.000691052
*CONN
*I *4498:A1 I *D sky130_fd_sc_hd__o21ai_1
*I *4492:X O *D sky130_fd_sc_hd__o21a_1
*CAP
1 *4498:A1 0.000271883
2 *4492:X 0.000271883
3 *4498:A1 *4499:B2 3.18219e-05
4 *4498:A1 *193:29 0
5 *4497:A1 *4498:A1 0.000115464
*RES
1 *4492:X *4498:A1 10.755 
*END

*D_NET *193 0.0077521
*CONN
*I *4512:A2 I *D sky130_fd_sc_hd__o32a_1
*I *4496:A2 I *D sky130_fd_sc_hd__o211a_1
*I *4530:B1 I *D sky130_fd_sc_hd__a32o_1
*I *4497:A2 I *D sky130_fd_sc_hd__o21ai_1
*I *4493:X O *D sky130_fd_sc_hd__and2b_4
*CAP
1 *4512:A2 0.000422903
2 *4496:A2 3.90193e-05
3 *4530:B1 0.000907367
4 *4497:A2 0.000109162
5 *4493:X 0
6 *193:29 0.00100543
7 *193:16 0.000921917
8 *193:4 0.00117661
9 *4496:A2 *4496:B1 2.05571e-05
10 *4497:A2 *4497:B1 0.000143735
11 *4497:A2 *4498:B1 4.05358e-05
12 *4512:A2 *4513:B2 0.000137578
13 *4512:A2 *219:16 0
14 *4512:A2 *227:10 9.50342e-06
15 *4512:A2 *227:16 0.000134516
16 *4512:A2 *232:12 7.44453e-05
17 *4512:A2 *232:37 0.000107797
18 *4530:B1 *4492:B1 0.00018851
19 *4530:B1 *4496:B1 1.61696e-05
20 *4530:B1 *4499:B2 0
21 *4530:B1 *219:59 0.000100463
22 *193:16 *4493:A_N 3.00381e-05
23 *193:16 *4493:B 0
24 *193:16 *4496:A1 2.49909e-05
25 *193:16 *228:20 0.000248123
26 *193:29 *4497:B1 3.09233e-05
27 *193:29 *4498:B1 2.4997e-05
28 *4472:A2 *4512:A2 0
29 *4480:A *4530:B1 0
30 *4491:A *193:16 4.82863e-05
31 *4492:A2 *4530:B1 3.98782e-05
32 *4497:A1 *4497:A2 0
33 *4497:A1 *193:29 0
34 *4498:A1 *193:29 0
35 *4510:A2 *4530:B1 7.47145e-05
36 *4511:A2 *4530:B1 0.000197365
37 *4512:B2 *4512:A2 6.02202e-05
38 *4513:B1 *4512:A2 0.000319167
39 *4513:B1 *193:16 5.97713e-05
40 *4518:A1 *4530:B1 8.34281e-06
41 *4518:B1 *4530:B1 8.23457e-05
42 *4530:B2 *4530:B1 8.49205e-05
43 *149:22 *4512:A2 5.12017e-06
44 *158:52 *4530:B1 0.000136163
45 *168:10 *193:29 0
46 *168:21 *193:16 4.85494e-05
47 *177:71 *4530:B1 0.000333496
48 *190:21 *193:16 0.000338461
*RES
1 *4493:X *193:4 1.6 
2 *193:4 *193:16 14.93 
3 *193:16 *4497:A2 5.865 
4 *193:16 *193:29 0.9975 
5 *193:29 *4530:B1 21.63 
6 *193:29 *4496:A2 4.2825 
7 *193:4 *4512:A2 15.395 
*END

*D_NET *194 0.0148316
*CONN
*I *4538:C1 I *D sky130_fd_sc_hd__a2111oi_1
*I *4537:B1 I *D sky130_fd_sc_hd__a211o_1
*I *4533:B I *D sky130_fd_sc_hd__nor2_2
*I *4527:A2 I *D sky130_fd_sc_hd__o21a_1
*I *4565:C I *D sky130_fd_sc_hd__or4b_1
*I *4573:B I *D sky130_fd_sc_hd__nand2_1
*I *4494:X O *D sky130_fd_sc_hd__and2b_4
*CAP
1 *4538:C1 3.12096e-05
2 *4537:B1 9.53661e-05
3 *4533:B 0
4 *4527:A2 0.000285914
5 *4565:C 0.000442491
6 *4573:B 0
7 *4494:X 0.000256594
8 *194:74 0.000256516
9 *194:46 0.000624797
10 *194:38 0.00203955
11 *194:10 0.00109726
12 *194:6 0.00248209
13 *4527:A2 *4459:A 0
14 *4527:A2 *4550:C1 8.53113e-06
15 *4537:B1 *4537:C1 8.6098e-05
16 *4537:B1 *223:53 4.99619e-05
17 *194:6 *229:29 2.68464e-05
18 *194:10 *4545:B 0.00116152
19 *194:38 *4505:B 6.23375e-05
20 *194:38 *4570:A2 0.000179034
21 *194:38 *229:101 7.67415e-06
22 *194:38 *234:39 0.000535676
23 *194:38 *234:49 1.83847e-05
24 *194:74 *4537:C1 1.73593e-05
25 *194:74 *237:16 0
26 *4504:B *4565:C 0.000123225
27 *4529:A1 *4527:A2 0.00026458
28 *4529:A1 *194:46 0.000557231
29 *4533:A *194:46 0.000194258
30 *4534:A *4527:A2 5.65627e-05
31 *4538:A1 *4537:B1 0.000116158
32 *4538:A1 *4538:C1 5.83121e-06
33 *4538:A1 *194:74 1.54061e-06
34 *4538:A2 *194:38 1.83847e-05
35 *4538:B1 *194:74 8.53113e-06
36 *4539:A2 *4537:B1 2.33136e-05
37 *4539:A2 *194:46 0.000132842
38 *4539:A2 *194:74 5.70778e-05
39 *4539:B1 *4538:C1 4.9253e-06
40 *4540:A2 *194:6 0.000181005
41 *4540:A2 *194:38 0.000438836
42 *4541:A *194:38 4.82919e-05
43 *4541:B *194:38 4.99619e-05
44 *4543:A3 *194:38 0.000123225
45 *4550:A2 *4527:A2 4.66108e-05
46 *4553:B *194:46 0.000233231
47 *4556:A2 *4527:A2 0.00011852
48 *4565:A *4565:C 0.000333195
49 *4565:D_N *4565:C 0.000310957
50 *4572:A1 *194:10 0.000172138
51 *4572:A2 *194:10 8.71079e-05
52 *66:23 *4565:C 7.04021e-05
53 *83:16 *194:46 0
54 *89:10 *4527:A2 7.1009e-05
55 *94:10 *4527:A2 4.75576e-05
56 *94:23 *4527:A2 0.00022242
57 *148:8 *4537:B1 4.82919e-05
58 *149:22 *194:46 0
59 *155:20 *4527:A2 8.40213e-05
60 *155:20 *194:46 3.57349e-05
61 *157:36 *194:46 0.00023367
62 *157:47 *4527:A2 2.92496e-05
63 *157:68 *4527:A2 3.57349e-05
64 *157:68 *194:46 4.66108e-05
65 *161:58 *194:46 0
66 *161:86 *4565:C 0.000302587
67 *161:86 *194:10 9.50342e-06
68 *163:14 *194:6 4.7003e-05
69 *163:75 *4527:A2 7.5037e-05
*RES
1 *4494:X *194:6 5.845 
2 *194:6 *194:10 18.17 
3 *194:10 *4573:B 3.6 
4 *194:10 *4565:C 14.85 
5 *194:6 *194:38 28.18 
6 *194:38 *194:46 14.245 
7 *194:46 *4527:A2 14.66 
8 *194:46 *4533:B 1.6 
9 *194:38 *194:74 4.22 
10 *194:74 *4537:B1 6.495 
11 *194:74 *4538:C1 4.05 
*END

*D_NET *195 0.0175222
*CONN
*I *4536:B I *D sky130_fd_sc_hd__and3_4
*I *4530:A3 I *D sky130_fd_sc_hd__a32o_1
*I *4496:B1 I *D sky130_fd_sc_hd__o211a_1
*I *4540:B2 I *D sky130_fd_sc_hd__o221a_1
*I *4495:Y O *D sky130_fd_sc_hd__nand2b_4
*CAP
1 *4536:B 0.000119855
2 *4530:A3 1.41956e-05
3 *4496:B1 0.000506555
4 *4540:B2 0.000971826
5 *4495:Y 0.00152315
6 *195:32 0.00210083
7 *195:24 0.001304
8 *195:16 0.00231036
9 *4496:B1 *228:20 0
10 *4536:B *4549:B1 0
11 *4540:B2 *4522:C 0.000199833
12 *4540:B2 *4540:A1 5.83121e-06
13 *195:16 *4450:A_N 2.07184e-05
14 *195:16 *4450:B 1.7396e-05
15 *195:16 *4482:A 4.66108e-05
16 *195:16 *4495:B 0.000241483
17 *195:16 *4647:A 0.00062196
18 *195:16 *232:50 5.21627e-05
19 *195:16 *232:61 1.46828e-05
20 *195:16 *236:27 0.000222813
21 *195:24 *234:16 0.000136599
22 *195:32 *4673:A 0.000513175
23 *195:32 *234:16 0
24 *4492:A2 *4496:B1 2.92496e-05
25 *4496:A2 *4496:B1 2.05571e-05
26 *4507:B *4536:B 4.29702e-05
27 *4507:B *195:16 1.32843e-05
28 *4507:B *195:24 0.000382934
29 *4508:A1 *195:16 2.96334e-05
30 *4520:A1 *4536:B 3.69989e-05
31 *4520:A1 *195:16 4.87317e-05
32 *4520:A1 *195:24 0.000245517
33 *4524:B1 *195:32 0.000709364
34 *4526:A *195:32 0
35 *4530:B1 *4496:B1 1.61696e-05
36 *4532:A2 *195:32 0.000107666
37 *4536:A *4536:B 0
38 *4540:B1 *4540:B2 0.000596788
39 *4540:C1 *4540:B2 0.00103082
40 *4543:A2 *4540:B2 0.000421021
41 *4626:A *195:32 0
42 *64:20 *195:16 0.000727495
43 *64:24 *195:16 0.000143958
44 *64:28 *4536:B 0
45 *150:10 *195:16 0
46 *158:43 *195:24 7.92464e-06
47 *158:43 *195:32 1.19928e-05
48 *158:52 *4530:A3 1.85674e-05
49 *158:52 *195:24 9.6819e-05
50 *163:75 *195:24 7.06865e-05
51 *168:10 *4496:B1 5.53249e-06
52 *176:14 *195:24 0.000226196
53 *190:33 *4496:B1 0.000672092
54 *190:33 *4540:B2 0.00086522
*RES
1 *4495:Y *195:16 31.075 
2 *195:16 *195:24 17.9 
3 *195:24 *195:32 18.67 
4 *195:32 *4540:B2 25 
5 *195:32 *4496:B1 12.875 
6 *195:24 *4530:A3 1.96 
7 *195:16 *4536:B 6 
*END

*D_NET *196 0.000211258
*CONN
*I *4498:A2 I *D sky130_fd_sc_hd__o21ai_1
*I *4496:X O *D sky130_fd_sc_hd__o211a_1
*CAP
1 *4498:A2 5.76189e-05
2 *4496:X 5.76189e-05
3 *4498:A2 *4498:B1 4.99619e-05
4 *190:33 *4498:A2 4.60584e-05
*RES
1 *4496:X *4498:A2 4.34 
*END

*D_NET *197 0.00036321
*CONN
*I *4498:B1 I *D sky130_fd_sc_hd__o21ai_1
*I *4497:Y O *D sky130_fd_sc_hd__o21ai_1
*CAP
1 *4498:B1 8.86239e-05
2 *4497:Y 8.86239e-05
3 *4497:A1 *4498:B1 0
4 *4497:A2 *4498:B1 4.05358e-05
5 *4498:A2 *4498:B1 4.99619e-05
6 *190:33 *4498:B1 7.04675e-05
7 *193:29 *4498:B1 2.4997e-05
*RES
1 *4497:Y *4498:B1 9.375 
*END

*D_NET *198 0.00421925
*CONN
*I *4499:B2 I *D sky130_fd_sc_hd__a2bb2o_1
*I *4498:Y O *D sky130_fd_sc_hd__o21ai_1
*CAP
1 *4499:B2 0.00102282
2 *4498:Y 0.00102282
3 *4499:B2 *4483:A 0.000116853
4 *4476:B *4499:B2 0.000507321
5 *4497:A1 *4499:B2 0
6 *4498:A1 *4499:B2 3.18219e-05
7 *4504:A *4499:B2 4.82919e-05
8 *4511:A2 *4499:B2 2.46007e-05
9 *4519:A1 *4499:B2 0.000495982
10 *4520:A1 *4499:B2 0.000141865
11 *4530:B1 *4499:B2 0
12 *150:32 *4499:B2 0.000245893
13 *173:63 *4499:B2 8.25609e-05
14 *176:14 *4499:B2 0.000252373
15 *182:16 *4499:B2 2.15594e-05
16 *182:20 *4499:B2 0.000204486
*RES
1 *4498:Y *4499:B2 32.235 
*END

*D_NET *199 0.00564926
*CONN
*I *4582:A2 I *D sky130_fd_sc_hd__a21oi_1
*I *4581:C I *D sky130_fd_sc_hd__and3_4
*I *4630:A I *D sky130_fd_sc_hd__dlygate4sd3_1
*I *4452:A0 I *D sky130_fd_sc_hd__mux2_1
*I *4602:Q O *D sky130_fd_sc_hd__dfrtp_4
*CAP
1 *4582:A2 0
2 *4581:C 0.000319654
3 *4630:A 0
4 *4452:A0 0.000245853
5 *4602:Q 2.22788e-05
6 *199:38 0.00100122
7 *199:25 0.000971951
8 *199:8 0.00055852
9 *4452:A0 *4452:A1 3.23663e-05
10 *4452:A0 *4452:S 0.000124895
11 *4452:A0 *251:12 0
12 *4581:C *4443:A1 1.52945e-05
13 *4581:C *4580:B 0.000160635
14 *4581:C *4582:A1 4.35432e-05
15 *4581:C *4582:B1 4.82863e-05
16 *4581:C *4596:A 8.65905e-05
17 *4581:C *225:56 0.000173973
18 *199:8 *4442:A 1.16578e-05
19 *199:8 *4580:B 3.66286e-05
20 *199:25 *245:12 9.47454e-05
21 *199:25 *251:12 0
22 *199:38 *4443:A1 0.000130506
23 *199:38 *4447:A1 0.000197264
24 *199:38 *4473:A1 0.000439235
25 *199:38 *251:12 0.000581986
26 *4583:A *4581:C 7.91708e-05
27 *4583:B *4581:C 0.000273008
28 *4637:A *199:38 0
29 *4638:A *199:38 0
*RES
1 *4602:Q *199:8 4.05 
2 *199:8 *4452:A0 7.92 
3 *199:8 *199:25 6.575 
4 *199:25 *4630:A 1.6 
5 *199:25 *199:38 19.36 
6 *199:38 *4581:C 13.655 
7 *199:38 *4582:A2 1.6 
*END

*D_NET *200 0.0110001
*CONN
*I *4632:A I *D sky130_fd_sc_hd__dlygate4sd3_1
*I *4582:A1 I *D sky130_fd_sc_hd__a21oi_1
*I *4581:A I *D sky130_fd_sc_hd__and3_4
*I *4445:B I *D sky130_fd_sc_hd__nand2b_4
*I *4446:A0 I *D sky130_fd_sc_hd__mux2_1
*I *4603:Q O *D sky130_fd_sc_hd__dfrtp_4
*CAP
1 *4632:A 8.83727e-05
2 *4582:A1 0.000180344
3 *4581:A 0
4 *4445:B 0.000118401
5 *4446:A0 4.20666e-05
6 *4603:Q 0.000262633
7 *200:24 0.0015884
8 *200:18 0.00149249
9 *200:16 0.00110131
10 *200:8 0.00120741
11 *4445:B *4444:B 0
12 *4445:B *241:17 0
13 *4445:B *241:37 0
14 *4446:A0 *4444:A 2.49909e-05
15 *4446:A0 *221:12 5.83121e-06
16 *4582:A1 *4443:A1 0
17 *4582:A1 *4580:B 9.80032e-06
18 *4582:A1 *4582:B1 8.8266e-05
19 *4582:A1 *221:12 0.000179015
20 *4582:A1 *225:56 0.000197071
21 *4632:A *225:50 0
22 *200:16 *4452:A1 0.00026784
23 *200:16 *4580:A 0.000249341
24 *200:16 *4580:B 0.000428764
25 *200:16 *201:8 1.1392e-05
26 *200:18 *4627:A 6.52111e-05
27 *200:18 *221:12 0.000275369
28 *200:18 *225:56 0.000208484
29 *200:24 *4627:A 0.0011436
30 *200:24 *221:12 0.00139873
31 *4581:C *4582:A1 4.35432e-05
32 *4603:D *200:16 6.90876e-05
33 *64:20 *4445:B 0.000252289
*RES
1 *4603:Q *200:8 4.735 
2 *200:8 *200:16 14.99 
3 *200:16 *200:18 3.165 
4 *200:18 *200:24 26.345 
5 *200:24 *4446:A0 2.05 
6 *200:24 *4445:B 8.51 
7 *200:18 *4581:A 3.6 
8 *200:16 *4582:A1 7.92 
9 *200:8 *4632:A 6.98 
*END

*D_NET *201 0.00264885
*CONN
*I *4631:A I *D sky130_fd_sc_hd__dlygate4sd3_1
*I *4581:B I *D sky130_fd_sc_hd__and3_4
*I *4447:A0 I *D sky130_fd_sc_hd__mux2_1
*I *4604:Q O *D sky130_fd_sc_hd__dfrtp_1
*CAP
1 *4631:A 9.49999e-05
2 *4581:B 0
3 *4447:A0 0.000496797
4 *4604:Q 4.28024e-05
5 *201:10 0.000537055
6 *201:8 0.000178061
7 *4447:A0 *4447:S 5.30673e-05
8 *4447:A0 *221:12 0.0003399
9 *4631:A *4580:B 0.000183488
10 *4631:A *221:12 0.000218317
11 *4631:A *225:56 8.49205e-05
12 *201:10 *221:12 0.000106655
13 *4610:A *4447:A0 0.000189299
14 *4610:A *4631:A 4.92206e-05
15 *4610:A *201:10 6.28765e-05
16 *200:16 *201:8 1.1392e-05
*RES
1 *4604:Q *201:8 4.05 
2 *201:8 *201:10 1.38 
3 *201:10 *4447:A0 12.81 
4 *201:10 *4581:B 3.6 
5 *201:8 *4631:A 7.05 
*END

*D_NET *202 0.00360485
*CONN
*I *4585:A I *D sky130_fd_sc_hd__nor2_1
*I *4443:A0 I *D sky130_fd_sc_hd__mux2_8
*I *4584:A I *D sky130_fd_sc_hd__and2_4
*I *4605:Q O *D sky130_fd_sc_hd__dfrtp_4
*CAP
1 *4585:A 0
2 *4443:A0 0.000608706
3 *4584:A 0.000199227
4 *4605:Q 0.000875456
5 *202:12 0.00168339
6 *4443:A0 *4443:S 4.05674e-06
7 *4584:B *4584:A 8.89673e-05
8 *4586:B *4443:A0 4.82863e-05
9 *4586:B *4584:A 0
10 *4586:B *202:12 8.82557e-05
11 *135:19 *4584:A 5.53249e-06
12 *137:8 *4584:A 2.97004e-06
*RES
1 *4605:Q *202:12 12.445 
2 *202:12 *4584:A 8.885 
3 *202:12 *4443:A0 8.74 
4 *202:12 *4585:A 1.6 
*END

*D_NET *203 0.00707779
*CONN
*I *4633:A I *D sky130_fd_sc_hd__dlygate4sd3_1
*I *4588:A I *D sky130_fd_sc_hd__and3_4
*I *4589:A1 I *D sky130_fd_sc_hd__a21oi_1
*I *4460:B I *D sky130_fd_sc_hd__or2_4
*I *4462:A0 I *D sky130_fd_sc_hd__mux2_1
*I *4606:Q O *D sky130_fd_sc_hd__dfrtp_4
*CAP
1 *4633:A 0
2 *4588:A 0.000408014
3 *4589:A1 0
4 *4460:B 5.16246e-05
5 *4462:A0 0.000280204
6 *4606:Q 0.000275362
7 *203:46 0.00116751
8 *203:16 0.00062293
9 *203:14 0.00175539
10 *203:12 0.000980152
11 *4460:B *4473:A1 0.000210839
12 *4460:B *4611:A 0.000119277
13 *4462:A0 *4461:A2 4.99619e-05
14 *4462:A0 *4462:S 5.05437e-05
15 *4462:A0 *241:76 0.000172448
16 *4462:A0 *243:12 0.000114912
17 *4588:A *4589:B1 0.000513573
18 *4588:A *204:16 0.000124895
19 *203:14 *4587:A 0.000124753
20 *203:46 *4611:A 0
21 *4589:A2 *4588:A 3.42871e-05
22 *4589:A2 *203:46 2.11084e-05
*RES
1 *4606:Q *203:12 9.92 
2 *203:12 *203:14 11.145 
3 *203:14 *203:16 4.245 
4 *203:16 *4462:A0 7 
5 *203:16 *4460:B 8 
6 *203:14 *203:46 14.965 
7 *203:46 *4589:A1 1.6 
8 *203:46 *4588:A 8.29 
9 *203:12 *4633:A 1.6 
*END

*D_NET *204 0.00340942
*CONN
*I *4634:A I *D sky130_fd_sc_hd__dlygate4sd3_1
*I *4588:B I *D sky130_fd_sc_hd__and3_4
*I *4473:A0 I *D sky130_fd_sc_hd__mux2_8
*I *4607:Q O *D sky130_fd_sc_hd__dfrtp_4
*CAP
1 *4634:A 0
2 *4588:B 0
3 *4473:A0 0.000914473
4 *4607:Q 0.000371779
5 *204:16 0.00114231
6 *204:12 0.000599613
7 *4473:A0 *4473:S 4.05674e-06
8 *204:12 *225:24 0.000206241
9 *204:16 *4589:B1 4.60584e-05
10 *4588:A *204:16 0.000124895
11 *4628:A *4473:A0 0
*RES
1 *4607:Q *204:12 12.65 
2 *204:12 *204:16 3.915 
3 *204:16 *4473:A0 15.71 
4 *204:16 *4588:B 1.6 
5 *204:12 *4634:A 1.6 
*END

*D_NET *205 0.00189138
*CONN
*I *4485:B I *D sky130_fd_sc_hd__or2_4
*I *4591:A I *D sky130_fd_sc_hd__nand2_1
*I *4592:A I *D sky130_fd_sc_hd__or2_1
*I *4608:Q O *D sky130_fd_sc_hd__dfrtp_1
*CAP
1 *4485:B 0.000490783
2 *4591:A 8.65968e-05
3 *4592:A 0
4 *4608:Q 0.000118877
5 *205:10 8.65968e-05
6 *205:8 0.00060966
7 *4591:A *242:20 0.000201503
8 *4591:B *4591:A 9.66103e-05
9 *4593:B *205:8 6.28843e-05
10 *4594:B *205:8 0
11 *4608:RESET_B *205:8 0
12 *139:28 *4485:B 0.000127408
13 *139:28 *205:8 5.53249e-06
14 *141:10 *4591:A 4.9253e-06
15 *141:10 *205:8 0
*RES
1 *4608:Q *205:8 5.49 
2 *205:8 *205:10 2 
3 *205:10 *4592:A 1.6 
4 *205:10 *4591:A 4.405 
5 *205:8 *4485:B 11.535 
*END

*D_NET *206 0.00100974
*CONN
*I *4500:B I *D sky130_fd_sc_hd__or2_4
*I *4629:A I *D sky130_fd_sc_hd__dlygate4sd3_1
*I *4609:Q O *D sky130_fd_sc_hd__dfrtp_1
*CAP
1 *4500:B 0.000232086
2 *4629:A 0
3 *4609:Q 0.00025902
4 *206:12 0.000491106
5 *4500:B *4594:A 2.75229e-05
6 *206:12 *4594:A 0
*RES
1 *4609:Q *206:12 8.81 
2 *206:12 *4629:A 1.6 
3 *206:12 *4500:B 5.155 
*END

*D_NET *207 0.00251004
*CONN
*I *4611:A I *D sky130_fd_sc_hd__clkbuf_16
*I *4612:A I *D sky130_fd_sc_hd__clkbuf_16
*I *4610:X O *D sky130_fd_sc_hd__clkbuf_16
*CAP
1 *4611:A 0.000376931
2 *4612:A 0.000337796
3 *4610:X 4.32265e-05
4 *207:6 0.000757954
5 *4611:A *4473:A1 9.70786e-05
6 *4612:A *4447:A1 3.89528e-05
7 *4612:A *4447:S 0
8 *4612:A *4473:A1 0.00073882
9 *4612:A *241:97 0
10 *4612:A *243:12 0
11 *4460:B *4611:A 0.000119277
12 *143:16 *4612:A 0
13 *203:46 *4611:A 0
*RES
1 *4610:X *207:6 2.05 
2 *207:6 *4612:A 14.12 
3 *207:6 *4611:A 12.29 
*END

*D_NET *208 0.00574429
*CONN
*I *4606:CLK I *D sky130_fd_sc_hd__dfrtp_4
*I *4607:CLK I *D sky130_fd_sc_hd__dfrtp_4
*I *4608:CLK I *D sky130_fd_sc_hd__dfrtp_1
*I *4609:CLK I *D sky130_fd_sc_hd__dfrtp_1
*I *4611:X O *D sky130_fd_sc_hd__clkbuf_16
*CAP
1 *4606:CLK 0.000100883
2 *4607:CLK 0
3 *4608:CLK 0
4 *4609:CLK 0.0012554
5 *4611:X 0.000122294
6 *208:16 0.00167753
7 *208:10 0.00080319
8 *208:8 0.000604238
9 *4606:CLK *4587:A 5.51245e-05
10 *4609:CLK *4601:A 1.577e-05
11 *208:8 *4587:A 8.40213e-05
12 *208:10 *4587:A 1.0183e-05
13 *4590:B *208:10 7.89611e-05
14 *4593:B *4609:CLK 4.27982e-05
15 *4606:D *208:10 0
16 *4607:D *208:10 5.42303e-05
17 *4608:D *4609:CLK 0.000148987
18 *4609:RESET_B *4609:CLK 2.92e-05
19 *4628:A *208:10 0
20 *4628:A *208:16 0
21 *137:8 *4606:CLK 0.000133075
22 *137:8 *208:10 5.16348e-05
23 *137:12 *208:10 0.000337517
24 *139:12 *208:10 0.000139245
*RES
1 *4611:X *208:8 5.43 
2 *208:8 *208:10 8.775 
3 *208:10 *208:16 8.705 
4 *208:16 *4609:CLK 18.91 
5 *208:16 *4608:CLK 1.6 
6 *208:10 *4607:CLK 3.6 
7 *208:8 *4606:CLK 6.03 
*END

*D_NET *209 0.0048407
*CONN
*I *4603:CLK I *D sky130_fd_sc_hd__dfrtp_4
*I *4605:CLK I *D sky130_fd_sc_hd__dfrtp_4
*I *4613:A I *D sky130_fd_sc_hd__clkbuf_4
*I *4602:CLK I *D sky130_fd_sc_hd__dfrtp_4
*I *4604:CLK I *D sky130_fd_sc_hd__dfrtp_1
*I *4612:X O *D sky130_fd_sc_hd__clkbuf_16
*CAP
1 *4603:CLK 0.00023573
2 *4605:CLK 0.000252008
3 *4613:A 0
4 *4602:CLK 0.000252356
5 *4604:CLK 0
6 *4612:X 0
7 *209:43 0.000753002
8 *209:16 0.000531853
9 *209:10 0.000904812
10 *209:4 0.00089058
11 *4602:CLK *4580:B 0.000469632
12 *4602:CLK *243:12 0.000159957
13 *209:16 *243:12 0.000390768
14 *4628:A *4603:CLK 0
15 *4628:A *4605:CLK 0
16 *135:19 *4603:CLK 0
17 *135:19 *4605:CLK 0
*RES
1 *4612:X *209:4 1.6 
2 *209:4 *209:10 8.85 
3 *209:10 *209:16 7.925 
4 *209:16 *4604:CLK 3.6 
5 *209:16 *4602:CLK 9.735 
6 *209:10 *4613:A 1.6 
7 *209:4 *209:43 5.9 
8 *209:43 *4605:CLK 7.785 
9 *209:43 *4603:CLK 7.53 
*END

*D_NET *210 0.00489072
*CONN
*I *4452:A1 I *D sky130_fd_sc_hd__mux2_1
*I *4635:X O *D sky130_fd_sc_hd__buf_1
*CAP
1 *4452:A1 0.0021221
2 *4635:X 0.0021221
3 *4452:A1 *4452:S 0.000250076
4 *4452:A0 *4452:A1 3.23663e-05
5 *4610:A *4452:A1 9.62357e-05
6 *200:16 *4452:A1 0.00026784
*RES
1 *4635:X *4452:A1 32.565 
*END

*D_NET *211 0.0033157
*CONN
*I *4647:A I *D sky130_fd_sc_hd__clkbuf_1
*I *4520:X O *D sky130_fd_sc_hd__a22o_1
*CAP
1 *4647:A 0.000842595
2 *4520:X 0.000842595
3 *4647:A *4649:A 0
4 *4647:A *4651:A 0
5 *4647:A *4654:A 0.000388268
6 *64:24 *4647:A 0.000620285
7 *195:16 *4647:A 0.00062196
*RES
1 *4520:X *4647:A 25.38 
*END

*D_NET *212 0.00538361
*CONN
*I *4648:A I *D sky130_fd_sc_hd__clkbuf_1
*I *4535:X O *D sky130_fd_sc_hd__a32o_1
*CAP
1 *4648:A 0.00164529
2 *4535:X 0.00164529
3 *4648:A *4450:B 0
4 *4648:A *4649:A 0
5 *150:10 *4648:A 0
6 *169:10 *4648:A 0.000349726
7 *169:16 *4648:A 2.92496e-05
8 *169:46 *4648:A 0.00171405
*RES
1 *4535:X *4648:A 38.685 
*END

*D_NET *213 0.00727414
*CONN
*I *4649:A I *D sky130_fd_sc_hd__clkbuf_1
*I *4549:X O *D sky130_fd_sc_hd__a21o_1
*CAP
1 *4649:A 0.00336132
2 *4549:X 0.00336132
3 *4649:A *4549:B1 0.000551495
4 *4649:A *4654:A 0
5 *4647:A *4649:A 0
6 *4648:A *4649:A 0
7 *64:63 *4649:A 0
*RES
1 *4549:X *4649:A 20.9993 
*END

*D_NET *214 0.00559026
*CONN
*I *4650:A I *D sky130_fd_sc_hd__clkbuf_1
*I *4561:X O *D sky130_fd_sc_hd__a32o_1
*CAP
1 *4650:A 0.00179678
2 *4561:X 0.00179678
3 *4650:A *4506:A 0
4 *4650:A *4654:A 5.0751e-05
5 *4650:A *216:12 0.00130976
6 *64:41 *4650:A 0.000624524
7 *64:45 *4650:A 1.16578e-05
*RES
1 *4561:X *4650:A 32.325 
*END

*D_NET *215 0.0124935
*CONN
*I *4651:A I *D sky130_fd_sc_hd__clkbuf_1
*I *4566:X O *D sky130_fd_sc_hd__a21bo_1
*CAP
1 *4651:A 0.000647131
2 *4566:X 0.00298555
3 *215:10 0.00363268
4 *4651:A *4654:A 0.000119512
5 *4508:A3 *4651:A 0
6 *4508:B1 *4651:A 0
7 *4563:A1 *4651:A 0
8 *4564:A1_N *215:10 9.80943e-06
9 *4564:B1 *215:10 0.000966698
10 *4564:B2 *215:10 0.000349094
11 *4566:A2 *215:10 0.000194696
12 *4577:A1 *215:10 8.73389e-06
13 *4647:A *4651:A 0
14 *120:16 *215:10 0.00349428
15 *121:6 *215:10 8.52883e-05
*RES
1 *4566:X *215:10 48.745 
2 *215:10 *4651:A 16.415 
*END

*D_NET *216 0.0103898
*CONN
*I *4652:A I *D sky130_fd_sc_hd__clkbuf_1
*I *4579:X O *D sky130_fd_sc_hd__mux2_4
*CAP
1 *4652:A 2.08101e-05
2 *4579:X 0.00106036
3 *216:12 0.00347965
4 *216:10 0.0045192
5 *4650:A *216:12 0.00130976
*RES
1 *4579:X *216:10 23.3 
2 *216:10 *216:12 53.58 
3 *216:12 *4652:A 1.96 
*END

*D_NET *217 0.00562547
*CONN
*I *4653:A I *D sky130_fd_sc_hd__clkbuf_1
*I *4549:B1 I *D sky130_fd_sc_hd__a21o_1
*I *4536:X O *D sky130_fd_sc_hd__and3_4
*CAP
1 *4653:A 0.000517162
2 *4549:B1 0.00167011
3 *4536:X 0.00218727
4 *4549:B1 *4506:A 0
5 *4506:B *4653:A 9.05299e-05
6 *4536:A *4549:B1 0.000118527
7 *4536:B *4549:B1 0
8 *4649:A *4549:B1 0.000551495
9 *64:41 *4653:A 0.00039046
10 *69:27 *4653:A 1.33285e-05
11 *182:10 *4653:A 8.65961e-05
*RES
1 *4536:X *4549:B1 32.4 
2 *4536:X *4653:A 15.21 
*END

*D_NET *218 0.0075692
*CONN
*I *4505:B I *D sky130_fd_sc_hd__nand2_1
*I *4463:A I *D sky130_fd_sc_hd__nand2_4
*I *4567:A2 I *D sky130_fd_sc_hd__a21oi_1
*I *4574:B2 I *D sky130_fd_sc_hd__a22o_1
*I *4464:A1 I *D sky130_fd_sc_hd__a21oi_2
*I *4546:C I *D sky130_fd_sc_hd__and4_4
*I *4494:B I *D sky130_fd_sc_hd__and2b_4
*I *4643:X O *D sky130_fd_sc_hd__buf_2
*CAP
1 *4505:B 0.000200228
2 *4463:A 2.09808e-05
3 *4567:A2 0
4 *4574:B2 0.000557444
5 *4464:A1 0
6 *4546:C 5.81287e-05
7 *4494:B 3.40795e-05
8 *4643:X 0.000673897
9 *218:52 0.000628879
10 *218:41 0.000274998
11 *218:33 0.000604114
12 *218:16 0.000820808
13 *218:10 0.000822697
14 *4505:B *4570:A2 0
15 *4505:B *229:77 2.09303e-05
16 *4546:C *4458:A 6.38806e-05
17 *4546:C *4546:A 4.66108e-05
18 *4546:C *229:42 0.00019329
19 *4574:B2 *4545:B 2.79099e-05
20 *4574:B2 *4576:A2 0.000159156
21 *4574:B2 *238:55 0
22 *218:10 *4616:A 0.000201508
23 *218:10 *229:6 3.02926e-05
24 *218:10 *229:77 2.62967e-05
25 *218:10 *230:80 0.000641207
26 *218:16 *4463:B 1.52352e-05
27 *218:16 *229:6 3.04704e-05
28 *218:16 *229:21 0
29 *218:16 *229:29 3.09164e-05
30 *218:16 *234:63 0
31 *218:33 *4567:A1 2.11084e-05
32 *218:33 *4567:B1 4.80285e-05
33 *218:33 *229:29 0.000342942
34 *218:33 *234:63 0
35 *218:41 *4567:A1 5.13155e-05
36 *218:41 *238:61 2.0562e-05
37 *218:52 *4464:A2 8.97564e-05
38 *218:52 *238:61 0.000183043
39 *4568:C *4574:B2 5.53249e-06
40 *4568:C *218:41 2.03321e-05
41 *4568:C *218:52 1.34361e-05
42 *4574:B1 *4574:B2 7.58685e-05
43 *4578:C *4574:B2 0.00017873
44 *154:14 *4505:B 0.000131791
45 *154:27 *4505:B 8.97564e-05
46 *163:14 *218:16 5.06989e-05
47 *177:14 *218:16 0
48 *194:38 *4505:B 6.23375e-05
*RES
1 *4643:X *218:10 10.795 
2 *218:10 *218:16 7.175 
3 *218:16 *4494:B 4.05 
4 *218:16 *218:33 10.535 
5 *218:33 *218:41 4.445 
6 *218:41 *4546:C 5.43 
7 *218:41 *218:52 2.4 
8 *218:52 *4464:A1 3.6 
9 *218:52 *4574:B2 14.43 
10 *218:33 *4567:A2 1.6 
11 *218:10 *4463:A 1.96 
12 *4643:X *4505:B 11.415 
*END

*D_NET *219 0.00800218
*CONN
*I *4510:B1 I *D sky130_fd_sc_hd__a21oi_1
*I *4554:A I *D sky130_fd_sc_hd__or3_1
*I *4513:B2 I *D sky130_fd_sc_hd__o22a_1
*I *4525:A1 I *D sky130_fd_sc_hd__a2111o_1
*I *4521:A1 I *D sky130_fd_sc_hd__o2111a_1
*I *4552:A1 I *D sky130_fd_sc_hd__a32o_1
*I *4492:B1 I *D sky130_fd_sc_hd__o21a_1
*I *4467:A I *D sky130_fd_sc_hd__nand2_4
*I *4493:A_N I *D sky130_fd_sc_hd__and2b_4
*I *4671:X O *D sky130_fd_sc_hd__buf_2
*CAP
1 *4510:B1 0
2 *4554:A 2.08101e-05
3 *4513:B2 7.0506e-05
4 *4525:A1 2.08101e-05
5 *4521:A1 0
6 *4552:A1 0.000170275
7 *4492:B1 0.000213387
8 *4467:A 0
9 *4493:A_N 0.000204833
10 *4671:X 8.87763e-05
11 *219:59 0.000337101
12 *219:42 0.000624726
13 *219:38 0.000638204
14 *219:36 0.000465731
15 *219:34 0.000173115
16 *219:16 0.000510302
17 *219:12 0.000635871
18 *219:8 0.000289218
19 *4492:B1 *228:20 0
20 *4493:A_N *4493:B 0.000122155
21 *4513:B2 *232:12 4.66108e-05
22 *4552:A1 *234:16 0.000159964
23 *219:16 *222:10 0
24 *219:34 *230:50 4.47125e-05
25 *219:36 *230:50 2.75229e-05
26 *219:38 *4476:A 0.00046193
27 *219:38 *230:50 6.1357e-05
28 *219:59 *4476:A 4.82863e-05
29 *219:59 *228:14 0
30 *4472:A2 *4513:B2 5.21714e-05
31 *4472:A2 *219:12 0
32 *4472:A2 *219:16 0
33 *4476:B *4552:A1 4.99619e-05
34 *4476:B *219:59 4.82863e-05
35 *4492:A2 *4492:B1 8.53113e-06
36 *4510:A1 *219:8 2.49909e-05
37 *4510:A2 *219:8 0
38 *4512:A2 *4513:B2 0.000137578
39 *4512:A2 *219:16 0
40 *4526:C_N *219:42 0.000278117
41 *4530:B1 *4492:B1 0.00018851
42 *4530:B1 *219:59 0.000100463
43 *4532:A2 *4552:A1 0
44 *4554:C *219:12 0.000332802
45 *4554:C *219:34 0.000199833
46 *4555:A2 *219:38 4.21757e-05
47 *143:33 *219:8 1.17409e-05
48 *155:14 *4552:A1 4.99619e-05
49 *155:14 *219:59 0.000146408
50 *155:20 *4552:A1 0.0003104
51 *167:12 *219:16 0.000129687
52 *167:20 *4513:B2 2.75229e-05
53 *173:81 *4552:A1 0.000147953
54 *176:6 *4552:A1 5.82176e-05
55 *176:6 *219:59 3.38425e-05
56 *181:38 *219:38 2.49909e-05
57 *181:38 *219:42 4.35348e-05
58 *181:46 *219:42 8.82557e-05
59 *193:16 *4493:A_N 3.00381e-05
*RES
1 *4671:X *219:8 2.755 
2 *219:8 *219:12 6.185 
3 *219:12 *219:16 7.715 
4 *219:16 *4493:A_N 5.515 
5 *219:16 *4467:A 1.6 
6 *219:12 *219:34 4.52 
7 *219:34 *219:36 0.45 
8 *219:36 *219:38 6.66 
9 *219:38 *219:42 6.59 
10 *219:42 *4492:B1 7.98 
11 *219:42 *219:59 5.885 
12 *219:59 *4552:A1 10.7 
13 *219:59 *4521:A1 1.6 
14 *219:38 *4525:A1 1.96 
15 *219:36 *4513:B2 7.685 
16 *219:34 *4554:A 1.96 
17 *219:8 *4510:B1 1.6 
*END

*D_NET *220 0.00772179
*CONN
*I *4553:C_N I *D sky130_fd_sc_hd__or3b_1
*I *4550:C1 I *D sky130_fd_sc_hd__a211o_1
*I *4570:C1 I *D sky130_fd_sc_hd__a211o_1
*I *4542:A1 I *D sky130_fd_sc_hd__o311a_1
*I *4505:A I *D sky130_fd_sc_hd__nand2_1
*I *4540:A1 I *D sky130_fd_sc_hd__o221a_1
*I *4477:B1 I *D sky130_fd_sc_hd__a21oi_4
*I *4644:X O *D sky130_fd_sc_hd__buf_2
*CAP
1 *4553:C_N 0.000148758
2 *4550:C1 9.58971e-05
3 *4570:C1 0
4 *4542:A1 0
5 *4505:A 0.000230809
6 *4540:A1 7.70828e-05
7 *4477:B1 0.000255648
8 *4644:X 0.000102416
9 *220:28 0.000492173
10 *220:22 0.00054642
11 *220:16 0.000200623
12 *220:14 0.000932128
13 *220:8 0.00113783
14 *220:6 0.000405433
15 *4477:B1 *4570:A2 8.69212e-05
16 *4477:B1 *230:80 4.82863e-05
17 *4477:B1 *231:10 4.99619e-05
18 *4477:B1 *234:49 8.25609e-05
19 *4550:C1 *4459:A 0
20 *4550:C1 *231:41 0
21 *220:22 *4570:A2 0
22 *220:28 *4570:A2 4.24292e-06
23 *4465:A *220:14 0.000139238
24 *4465:A *220:16 0.000141606
25 *4527:A2 *4550:C1 8.53113e-06
26 *4533:A *4553:C_N 0.000137578
27 *4540:A2 *4540:A1 5.05521e-05
28 *4540:B1 *4540:A1 0
29 *4540:B2 *4540:A1 5.83121e-06
30 *4542:A3 *220:16 0.000153794
31 *4542:A3 *220:22 4.73669e-05
32 *4543:A1 *4505:A 5.6361e-05
33 *4543:A2 *4505:A 0.000124895
34 *4543:A3 *4540:A1 4.82919e-05
35 *4543:A3 *220:22 0
36 *4543:A3 *220:28 6.02396e-06
37 *4543:B1 *220:22 0.000116151
38 *4550:A2 *4550:C1 8.65905e-05
39 *4553:B *4553:C_N 0.000164679
40 *149:28 *220:22 5.11148e-06
41 *155:20 *4550:C1 8.65905e-05
42 *155:20 *220:6 9.66106e-05
43 *155:20 *220:8 0.00010163
44 *155:20 *220:14 8.95933e-05
45 *155:24 *220:14 0.000268628
46 *155:26 *220:14 0.000131408
47 *155:26 *220:16 9.50342e-06
48 *157:47 *4550:C1 5.37079e-05
49 *158:28 *220:14 0.000694329
50 *161:58 *4553:C_N 0
*RES
1 *4644:X *220:6 3.085 
2 *220:6 *220:8 1.83 
3 *220:8 *220:14 15.47 
4 *220:14 *220:16 1.89 
5 *220:16 *220:22 3.465 
6 *220:22 *220:28 2.025 
7 *220:28 *4477:B1 8.49 
8 *220:28 *4540:A1 5.1 
9 *220:22 *4505:A 6.735 
10 *220:16 *4542:A1 3.6 
11 *220:14 *4570:C1 3.6 
12 *220:8 *4550:C1 7.82 
13 *220:6 *4553:C_N 9.02 
*END

*D_NET *221 0.00705646
*CONN
*I *4446:A1 I *D sky130_fd_sc_hd__mux2_1
*I *4444:A I *D sky130_fd_sc_hd__nand2_2
*I *4636:X O *D sky130_fd_sc_hd__buf_1
*CAP
1 *4446:A1 0
2 *4444:A 0.0002812
3 *4636:X 0.000873635
4 *221:12 0.00115483
5 *221:12 *4443:A1 0
6 *221:12 *4446:S 0.000201503
7 *221:12 *4627:A 0.000550999
8 *221:12 *241:6 0.000993965
9 *221:12 *241:59 4.66108e-05
10 *4446:A0 *4444:A 2.49909e-05
11 *4446:A0 *221:12 5.83121e-06
12 *4447:A0 *221:12 0.0003399
13 *4582:A1 *221:12 0.000179015
14 *4610:A *221:12 0.000207285
15 *4631:A *221:12 0.000218317
16 *64:20 *4444:A 0.000147066
17 *186:16 *4444:A 5.05521e-05
18 *200:18 *221:12 0.000275369
19 *200:24 *221:12 0.00139873
20 *201:10 *221:12 0.000106655
*RES
1 *4636:X *221:12 36.92 
2 *221:12 *4444:A 11.27 
3 *221:12 *4446:A1 1.6 
*END

*D_NET *222 0.00552947
*CONN
*I *4493:B I *D sky130_fd_sc_hd__and2b_4
*I *4467:B I *D sky130_fd_sc_hd__nand2_4
*I *4481:A I *D sky130_fd_sc_hd__nor2_4
*I *4490:A1 I *D sky130_fd_sc_hd__mux2_8
*I *4645:X O *D sky130_fd_sc_hd__buf_2
*CAP
1 *4493:B 0.000240104
2 *4467:B 0.000273862
3 *4481:A 0.000191866
4 *4490:A1 0.000216589
5 *4645:X 0.00105332
6 *222:12 0.000559857
7 *222:10 0.00123848
8 *4481:A *223:24 0.000507936
9 *4490:A1 *4490:A0 0
10 *222:10 *4471:A1 6.00003e-05
11 *222:10 *4490:A0 0
12 *222:10 *4671:A 4.13249e-05
13 *222:10 *230:24 0
14 *222:10 *230:35 0
15 *222:10 *236:14 2.67275e-05
16 *222:12 *4490:A0 0
17 *4472:B1 *222:10 0.000468926
18 *4493:A_N *4493:B 0.000122155
19 *4509:C *222:10 0.00051744
20 *4512:A3 *222:10 0
21 *4515:A2 *222:10 0
22 *4515:B2 *222:10 1.08758e-05
23 *4554:C *222:10 0
24 *153:10 *222:10 0
25 *155:14 *222:10 0
26 *167:12 *222:10 0
27 *167:12 *222:12 0
28 *193:16 *4493:B 0
29 *219:16 *222:10 0
*RES
1 *4645:X *222:10 24.135 
2 *222:10 *222:12 2.4 
3 *222:12 *4490:A1 5.3225 
4 *222:12 *4481:A 8.19 
5 *222:10 *4467:B 4.05 
6 *4467:B *4493:B 7.13 
*END

*D_NET *223 0.00877906
*CONN
*I *4481:B I *D sky130_fd_sc_hd__nor2_4
*I *4448:A I *D sky130_fd_sc_hd__inv_1
*I *4522:A_N I *D sky130_fd_sc_hd__and3b_1
*I *4618:A I *D sky130_fd_sc_hd__clkbuf_1
*I *4468:A_N I *D sky130_fd_sc_hd__nand2b_4
*I *4490:S I *D sky130_fd_sc_hd__mux2_8
*I *4672:X O *D sky130_fd_sc_hd__buf_2
*CAP
1 *4481:B 0
2 *4448:A 0
3 *4522:A_N 0.000198296
4 *4618:A 0
5 *4468:A_N 0
6 *4490:S 0.000221936
7 *4672:X 0.000331356
8 *223:53 0.000377953
9 *223:45 0.000948694
10 *223:32 0.00145008
11 *223:24 0.00142873
12 *223:8 0.00130098
13 *4522:A_N *4457:A 0.000163019
14 *4522:A_N *4457:B 0
15 *4522:A_N *231:41 0
16 *4522:A_N *234:22 0.000151432
17 *223:45 *230:56 0.000237301
18 *223:45 *230:80 0.00058082
19 *223:53 *230:80 0.000612775
20 *4481:A *223:24 0.000507936
21 *4537:A2 *223:53 0.0001249
22 *4537:B1 *223:53 4.99619e-05
23 *148:8 *223:53 9.28886e-05
24 *168:10 *223:32 0
*RES
1 *4672:X *223:8 9.06 
2 *223:8 *4490:S 5.4875 
3 *223:8 *223:24 14.885 
4 *223:24 *223:32 13.93 
5 *223:32 *4468:A_N 1.6 
6 *223:32 *223:45 15.2063 
7 *223:45 *223:53 6.31875 
8 *223:53 *4618:A 1.6 
9 *223:53 *4522:A_N 9.725 
10 *223:45 *4448:A 1.6 
11 *223:24 *4481:B 1.6 
*END

*D_NET *224 0.0117333
*CONN
*I *4466:B1 I *D sky130_fd_sc_hd__o211a_1
*I *4559:A1 I *D sky130_fd_sc_hd__a32o_1
*I *4558:A I *D sky130_fd_sc_hd__nor2_1
*I *4544:C1 I *D sky130_fd_sc_hd__a221o_1
*I *4575:B1 I *D sky130_fd_sc_hd__a21o_1
*I *4502:A I *D sky130_fd_sc_hd__nand2_2
*I *4479:A I *D sky130_fd_sc_hd__nor2_4
*I *4673:X O *D sky130_fd_sc_hd__buf_2
*CAP
1 *4466:B1 1.31277e-05
2 *4559:A1 0.000200843
3 *4558:A 2.11455e-05
4 *4544:C1 2.84909e-05
5 *4575:B1 0.000923523
6 *4502:A 0.000235756
7 *4479:A 3.00522e-05
8 *4673:X 0.000402
9 *224:80 0.00044672
10 *224:37 0.00115928
11 *224:28 0.000567221
12 *224:20 0.000655675
13 *224:18 0.000585942
14 *224:14 0.000686322
15 *4544:C1 *238:22 4.91952e-05
16 *4575:B1 *4576:A2 5.69113e-05
17 *224:14 *4527:B1 2.49909e-05
18 *4456:A *224:28 2.61518e-05
19 *4465:A *224:28 3.09233e-05
20 *4465:B *224:28 7.45736e-05
21 *4466:C1 *224:18 0.00062029
22 *4488:A *224:20 0.00017688
23 *4488:A *224:28 0.000292059
24 *4488:A *224:80 0.000412582
25 *4527:A1 *4466:B1 3.26889e-05
26 *4527:A1 *224:14 0.000472358
27 *4531:A1 *224:14 2.0514e-05
28 *4531:A2 *224:14 0.00012657
29 *4543:A1 *4502:A 1.52184e-05
30 *4544:B1 *4544:C1 8.23457e-05
31 *4547:A1 *4575:B1 0
32 *4548:A1 *224:80 0.000248268
33 *4548:A2 *4575:B1 0
34 *4548:B1 *224:28 0
35 *4558:B *4558:A 3.26889e-05
36 *4558:B *224:80 1.08758e-05
37 *4559:B1 *4559:A1 2.09749e-05
38 *4559:B2 *4558:A 4.82919e-05
39 *4559:B2 *4559:A1 0.000161204
40 *4575:A1 *4575:B1 0.000155491
41 *4626:A *224:14 0
42 *89:10 *224:14 0.000237238
43 *158:28 *4502:A 0.00062029
44 *161:39 *224:14 0
45 *161:80 *4559:A1 3.73289e-05
46 *161:80 *224:80 6.07575e-06
47 *163:75 *224:14 0.000324505
48 *164:19 *4502:A 4.21973e-05
49 *164:32 *4575:B1 0
50 *173:94 *224:28 8.73389e-06
51 *173:100 *224:28 8.99706e-05
52 *173:104 *4502:A 8.07863e-05
53 *173:104 *4575:B1 4.43871e-06
54 *173:119 *4502:A 0.00054457
55 *177:52 *224:14 8.34281e-06
56 *177:52 *224:18 4.35348e-05
57 *179:12 *4575:B1 0
58 *179:38 *4575:B1 0
59 *186:61 *4575:B1 0.000537188
*RES
1 *4673:X *224:14 15.125 
2 *224:14 *224:18 8.315 
3 *224:18 *224:20 2.145 
4 *224:20 *224:28 11.39 
5 *224:28 *4479:A 2.05 
6 *224:28 *224:37 2 
7 *224:37 *4502:A 11.73 
8 *224:37 *4575:B1 20.355 
9 *224:20 *4544:C1 4.395 
10 *224:18 *224:80 7.76 
11 *224:80 *4558:A 2.41 
12 *224:80 *4559:A1 5.5 
13 *224:14 *4466:B1 1.96 
*END

*D_NET *225 0.0103338
*CONN
*I *4595:A I *D sky130_fd_sc_hd__inv_1
*I *4596:A I *D sky130_fd_sc_hd__inv_1
*I *4627:A I *D sky130_fd_sc_hd__clkbuf_2
*I *4597:A I *D sky130_fd_sc_hd__inv_1
*I *4598:A I *D sky130_fd_sc_hd__inv_1
*I *4599:A I *D sky130_fd_sc_hd__inv_1
*I *4646:X O *D sky130_fd_sc_hd__clkbuf_2
*CAP
1 *4595:A 0
2 *4596:A 4.55213e-05
3 *4627:A 0.000431977
4 *4597:A 1.95653e-05
5 *4598:A 1.95653e-05
6 *4599:A 4.7143e-05
7 *4646:X 0.000440103
8 *225:56 0.00117101
9 *225:50 0.00127608
10 *225:35 0.000935416
11 *225:24 0.000745807
12 *4627:A *4443:A1 0
13 *4627:A *4473:A1 0
14 *225:50 *4580:A 1.03783e-05
15 *225:56 *4443:A1 0
16 *225:56 *4580:A 9.20884e-05
17 *225:56 *4580:B 5.74791e-05
18 *4581:C *4596:A 8.65905e-05
19 *4581:C *225:56 0.000173973
20 *4582:A1 *225:56 0.000197071
21 *4583:A *4596:A 0.000214014
22 *4583:B *4596:A 9.62307e-05
23 *4603:RESET_B *225:50 0.000270812
24 *4605:RESET_B *225:50 5.13155e-05
25 *4606:RESET_B *225:35 9.71067e-05
26 *4607:RESET_B *4599:A 6.9114e-05
27 *4607:RESET_B *225:24 0.000189426
28 *4628:A *225:24 0.000343353
29 *4628:A *225:35 0.000403429
30 *4628:A *225:50 0.000475857
31 *4628:A *225:56 0.000113921
32 *4631:A *225:56 8.49205e-05
33 *4632:A *225:50 0
34 *200:18 *4627:A 6.52111e-05
35 *200:18 *225:56 0.000208484
36 *200:24 *4627:A 0.0011436
37 *204:12 *225:24 0.000206241
38 *221:12 *4627:A 0.000550999
*RES
1 *4646:X *4599:A 4.14875 
2 *4646:X *225:24 14.205 
3 *225:24 *4598:A 3.83625 
4 *225:24 *225:35 8.265 
5 *225:35 *4597:A 3.83625 
6 *225:35 *225:50 15.6388 
7 *225:50 *225:56 15.7963 
8 *225:56 *4627:A 16.545 
9 *225:56 *4596:A 5.7375 
10 *225:50 *4595:A 1.6 
*END

*D_NET *226 0.00182697
*CONN
*I *4447:A1 I *D sky130_fd_sc_hd__mux2_1
*I *4637:X O *D sky130_fd_sc_hd__buf_1
*CAP
1 *4447:A1 0.000735971
2 *4637:X 0.000735971
3 *4447:A1 *4443:A1 8.73389e-06
4 *4447:A1 *4473:A1 0
5 *4447:A1 *243:12 0
6 *4604:D *4447:A1 3.68682e-05
7 *4612:A *4447:A1 3.89528e-05
8 *4638:A *4447:A1 5.16348e-05
9 *4639:A *4447:A1 2.15738e-05
10 *199:38 *4447:A1 0.000197264
*RES
1 *4637:X *4447:A1 19.77 
*END

*D_NET *227 0.00775146
*CONN
*I *4512:A1 I *D sky130_fd_sc_hd__o32a_1
*I *4511:B1 I *D sky130_fd_sc_hd__o31ai_1
*I *4521:B1 I *D sky130_fd_sc_hd__o2111a_1
*I *4673:A I *D sky130_fd_sc_hd__buf_2
*I *4614:X O *D sky130_fd_sc_hd__clkbuf_1
*CAP
1 *4512:A1 0
2 *4511:B1 1.80893e-05
3 *4521:B1 0
4 *4673:A 0.000676576
5 *4614:X 0.0004364
6 *227:22 0.00149154
7 *227:16 0.000908005
8 *227:10 0.000511349
9 *227:10 *228:12 0.000316657
10 *227:10 *232:37 0.000131408
11 *227:16 *232:37 0.000134516
12 *227:22 *4476:A 0.000359405
13 *227:22 *4511:A1 1.35948e-05
14 *4472:A2 *227:10 0
15 *4474:A *227:22 2.05864e-05
16 *4511:A3 *227:22 0.000149108
17 *4512:A2 *227:10 9.50342e-06
18 *4512:A2 *227:16 0.000134516
19 *4512:B2 *227:16 0.000122325
20 *4512:B2 *227:22 1.16578e-05
21 *4532:A2 *4673:A 0.000464898
22 *155:14 *227:16 9.80943e-06
23 *155:14 *227:22 2.96334e-05
24 *158:43 *4673:A 0.000388251
25 *173:36 *4511:B1 1.15773e-05
26 *173:36 *227:16 7.1219e-05
27 *173:81 *4673:A 0.000323402
28 *174:8 *227:22 0.000103185
29 *176:6 *4673:A 8.16963e-05
30 *176:6 *227:22 0.000296167
31 *176:14 *4673:A 1.32064e-05
32 *195:32 *4673:A 0.000513175
*RES
1 *4614:X *227:10 10.17 
2 *227:10 *227:16 4.775 
3 *227:16 *227:22 12.3 
4 *227:22 *4673:A 20.93 
5 *227:22 *4521:B1 1.6 
6 *227:16 *4511:B1 1.96 
7 *227:10 *4512:A1 3.6 
*END

*D_NET *228 0.00629706
*CONN
*I *4471:B1 I *D sky130_fd_sc_hd__a41o_1
*I *4518:C1 I *D sky130_fd_sc_hd__a211o_1
*I *4525:D1 I *D sky130_fd_sc_hd__a2111o_1
*I *4497:B1 I *D sky130_fd_sc_hd__o21ai_1
*I *4496:A1 I *D sky130_fd_sc_hd__o211a_1
*I *4615:X O *D sky130_fd_sc_hd__buf_1
*CAP
1 *4471:B1 0
2 *4518:C1 0.000288447
3 *4525:D1 0
4 *4497:B1 0.000120222
5 *4496:A1 3.34124e-05
6 *4615:X 0.00014366
7 *228:20 0.000550949
8 *228:14 0.000785992
9 *228:12 0.00139959
10 *228:8 0.000866126
11 *4472:A3 *4518:C1 0
12 *4472:A3 *228:14 0
13 *4480:A *4518:C1 2.05864e-05
14 *4484:A2 *4518:C1 2.33514e-05
15 *4492:A2 *228:20 0
16 *4492:B1 *228:20 0
17 *4496:B1 *228:20 0
18 *4497:A1 *4497:B1 0
19 *4497:A2 *4497:B1 0.000143735
20 *4514:B2 *228:12 0.000262868
21 *4518:B1 *4518:C1 3.26889e-05
22 *4614:A *228:8 0.000131791
23 *4614:A *228:12 0.000124007
24 *168:10 *4497:B1 5.4256e-05
25 *168:21 *228:20 0.000464004
26 *168:36 *228:14 8.0118e-05
27 *168:36 *228:20 5.12946e-05
28 *190:21 *228:20 1.46744e-05
29 *190:33 *4496:A1 3.15283e-05
30 *190:33 *228:20 5.30673e-05
31 *193:16 *4496:A1 2.49909e-05
32 *193:16 *228:20 0.000248123
33 *193:29 *4497:B1 3.09233e-05
34 *219:59 *228:14 0
35 *227:10 *228:12 0.000316657
*RES
1 *4615:X *228:8 4.135 
2 *228:8 *228:12 15.56 
3 *228:12 *228:14 6.225 
4 *228:14 *228:20 12.125 
5 *228:20 *4496:A1 2.41 
6 *228:20 *4497:B1 8.39 
7 *228:14 *4525:D1 3.6 
8 *228:12 *4518:C1 8.025 
9 *228:8 *4471:B1 1.6 
*END

*D_NET *229 0.0100955
*CONN
*I *4522:B I *D sky130_fd_sc_hd__and3b_1
*I *4457:B I *D sky130_fd_sc_hd__xnor2_2
*I *4570:A2 I *D sky130_fd_sc_hd__a211o_1
*I *4454:B I *D sky130_fd_sc_hd__nand2b_2
*I *4494:A_N I *D sky130_fd_sc_hd__and2b_4
*I *4569:A2 I *D sky130_fd_sc_hd__a31oi_1
*I *4464:A2 I *D sky130_fd_sc_hd__a21oi_2
*I *4458:B I *D sky130_fd_sc_hd__xor2_2
*I *4546:D I *D sky130_fd_sc_hd__and4_4
*I *4463:B I *D sky130_fd_sc_hd__nand2_4
*I *4616:X O *D sky130_fd_sc_hd__clkbuf_2
*CAP
1 *4522:B 0.000125983
2 *4457:B 0.000225532
3 *4570:A2 0.000346335
4 *4454:B 0
5 *4494:A_N 0
6 *4569:A2 0
7 *4464:A2 9.13799e-05
8 *4458:B 3.97046e-05
9 *4546:D 0
10 *4463:B 7.92176e-05
11 *4616:X 0
12 *229:101 0.000892037
13 *229:79 0.00035674
14 *229:77 0.00109358
15 *229:42 0.000246899
16 *229:33 0.000295599
17 *229:29 0.000521734
18 *229:21 0.000413874
19 *229:6 0.000297726
20 *229:4 0.000689238
21 *4457:B *4457:A 0
22 *4457:B *231:41 9.54399e-05
23 *4458:B *4458:A 2.58756e-05
24 *4522:B *231:41 0.00015829
25 *4570:A2 *4643:A 0
26 *4570:A2 *234:49 8.53113e-06
27 *229:6 *4616:A 5.05521e-05
28 *229:29 *234:63 0
29 *229:29 *234:74 0
30 *229:33 *4458:A 1.85674e-05
31 *229:33 *234:100 1.68333e-05
32 *229:42 *4458:A 2.32597e-05
33 *229:42 *234:100 8.52883e-05
34 *229:77 *4616:A 6.6564e-05
35 *229:77 *230:80 0.000393467
36 *229:101 *234:39 0.00106828
37 *229:101 *234:49 4.82919e-05
38 *4477:B1 *4570:A2 8.69212e-05
39 *4505:B *4570:A2 0
40 *4505:B *229:77 2.09303e-05
41 *4522:A_N *4457:B 0
42 *4542:B1 *4570:A2 2.7881e-05
43 *4543:A1 *4570:A2 0
44 *4543:A3 *4570:A2 0.000116158
45 *4543:B1 *4570:A2 0
46 *4546:C *229:42 0.00019329
47 *4548:B1 *4570:A2 0.000293733
48 *4572:A3 *229:33 2.75145e-05
49 *68:10 *4570:A2 3.47668e-05
50 *83:16 *4522:B 4.66108e-05
51 *105:14 *229:33 5.03424e-05
52 *154:14 *229:77 4.92935e-05
53 *154:27 *4570:A2 0
54 *158:28 *4458:B 8.65905e-05
55 *158:28 *229:42 0.000193806
56 *163:14 *4463:B 4.89295e-05
57 *163:14 *229:6 3.6355e-05
58 *163:14 *229:21 0.000134878
59 *163:30 *229:29 0
60 *179:12 *4570:A2 8.89751e-05
61 *194:6 *229:29 2.68464e-05
62 *194:38 *4570:A2 0.000179034
63 *194:38 *229:101 7.67415e-06
64 *218:10 *229:6 3.02926e-05
65 *218:10 *229:77 2.62967e-05
66 *218:16 *4463:B 1.52352e-05
67 *218:16 *229:6 3.04704e-05
68 *218:16 *229:21 0
69 *218:16 *229:29 3.09164e-05
70 *218:33 *229:29 0.000342942
71 *218:52 *4464:A2 8.97564e-05
72 *220:22 *4570:A2 0
73 *220:28 *4570:A2 4.24292e-06
*RES
1 *4616:X *229:4 1.6 
2 *229:4 *229:6 2.52 
3 *229:6 *4463:B 3.01 
4 *229:6 *229:21 5.635 
5 *229:21 *229:29 10.855 
6 *229:29 *229:33 2.535 
7 *229:33 *4546:D 1.6 
8 *229:33 *229:42 3.48 
9 *229:42 *4458:B 1.1025 
10 *229:42 *4464:A2 7.49 
11 *229:29 *4569:A2 1.6 
12 *229:21 *4494:A_N 1.6 
13 *229:4 *229:77 10.05 
14 *229:77 *229:79 0.36 
15 *229:79 *4454:B 1.6 
16 *229:79 *4570:A2 14.315 
17 *229:77 *229:101 12.8 
18 *229:101 *4457:B 7.53 
19 *229:101 *4522:B 5.94 
*END

*D_NET *230 0.0253289
*CONN
*I *4453:A I *D sky130_fd_sc_hd__clkinv_1
*I *4562:A I *D sky130_fd_sc_hd__or3_1
*I *4455:A3 I *D sky130_fd_sc_hd__a31oi_4
*I *4511:A1 I *D sky130_fd_sc_hd__o31ai_1
*I *4468:B I *D sky130_fd_sc_hd__nand2b_4
*I *4545:B I *D sky130_fd_sc_hd__nand2_1
*I *4616:A I *D sky130_fd_sc_hd__clkbuf_2
*I *4490:A0 I *D sky130_fd_sc_hd__mux2_8
*I *4471:A4 I *D sky130_fd_sc_hd__a41o_1
*I *4470:B I *D sky130_fd_sc_hd__or2_4
*I *4617:X O *D sky130_fd_sc_hd__clkbuf_2
*CAP
1 *4453:A 0
2 *4562:A 0.000414796
3 *4455:A3 0.000363906
4 *4511:A1 8.72663e-05
5 *4468:B 2.08101e-05
6 *4545:B 0.000990339
7 *4616:A 3.60034e-05
8 *4490:A0 0.000614323
9 *4471:A4 0
10 *4470:B 1.96262e-05
11 *4617:X 0.000631532
12 *230:143 0.000842394
13 *230:80 0.00282388
14 *230:56 0.00295024
15 *230:50 0.00169353
16 *230:46 0.000838275
17 *230:35 0.00105752
18 *230:24 0.000785542
19 *230:22 0.00138185
20 *4490:A0 *4449:C 0
21 *4490:A0 *232:104 0
22 *4511:A1 *4476:A 0
23 *4545:B *238:38 0.000182615
24 *4562:A *232:37 0.000212398
25 *230:22 *236:12 7.70938e-05
26 *230:24 *4471:A1 0
27 *230:35 *4449:C 0
28 *230:35 *4471:A1 0
29 *230:35 *4671:A 0
30 *230:50 *4476:A 0.000271303
31 *230:56 *4476:A 0
32 *230:80 *4643:A 5.60284e-05
33 *230:80 *231:10 0.000684655
34 *230:80 *231:41 3.00381e-05
35 *230:80 *234:49 0.000237243
36 *230:80 *234:63 4.99619e-05
37 *230:143 *236:12 6.60261e-06
38 *4455:A1 *4455:A3 0.000210733
39 *4471:A2 *230:24 0
40 *4472:A2 *4562:A 4.21973e-05
41 *4472:A3 *4562:A 0.000122331
42 *4472:B1 *4562:A 0.000200615
43 *4472:B1 *230:143 0.000259541
44 *4477:B1 *230:80 4.82863e-05
45 *4490:A1 *4490:A0 0
46 *4509:C *230:22 0
47 *4509:C *230:24 0
48 *4511:A3 *4511:A1 1.35948e-05
49 *4513:B1 *230:56 0
50 *4514:B1 *4511:A1 0.000174279
51 *4514:B1 *230:56 0.000136877
52 *4515:B1 *4562:A 0.000140905
53 *4554:B *230:50 4.47209e-05
54 *4554:C *230:50 0.000235568
55 *4555:A2 *230:50 0.000345347
56 *4555:B1 *4545:B 0.000158297
57 *4563:A1 *4562:A 0
58 *4572:A1 *4545:B 0.000380991
59 *4574:B1 *4545:B 2.19562e-06
60 *4574:B2 *4545:B 2.79099e-05
61 *4621:A *230:22 5.4003e-05
62 *4621:A *230:24 9.30717e-05
63 *64:20 *4470:B 3.00381e-05
64 *64:20 *230:22 8.65961e-05
65 *145:10 *230:24 0
66 *145:16 *230:24 0
67 *145:22 *230:24 0
68 *145:22 *230:35 0
69 *146:10 *230:22 0.000133763
70 *149:22 *230:56 0
71 *154:14 *230:80 0
72 *155:14 *4455:A3 0.000113809
73 *155:14 *230:50 0.00025143
74 *163:30 *4545:B 8.4841e-05
75 *163:43 *4545:B 0.00011194
76 *168:21 *230:56 0
77 *170:8 *230:22 0
78 *172:10 *4562:A 9.27255e-06
79 *173:38 *4511:A1 6.9117e-05
80 *173:49 *4511:A1 4.43871e-06
81 *173:166 *4562:A 0
82 *177:14 *4545:B 1.56651e-05
83 *177:14 *230:80 0.000273878
84 *181:8 *230:56 0
85 *181:23 *230:56 0
86 *181:34 *230:56 0
87 *190:12 *230:56 0
88 *194:10 *4545:B 0.00116152
89 *218:10 *4616:A 0.000201508
90 *218:10 *230:80 0.000641207
91 *219:34 *230:50 4.47125e-05
92 *219:36 *230:50 2.75229e-05
93 *219:38 *230:50 6.1357e-05
94 *222:10 *4490:A0 0
95 *222:10 *230:24 0
96 *222:10 *230:35 0
97 *222:12 *4490:A0 0
98 *223:45 *230:56 0.000237301
99 *223:45 *230:80 0.00058082
100 *223:53 *230:80 0.000612775
101 *227:22 *4511:A1 1.35948e-05
102 *229:6 *4616:A 5.05521e-05
103 *229:77 *4616:A 6.6564e-05
104 *229:77 *230:80 0.000393467
*RES
1 *4617:X *4470:B 3.65 
2 *4617:X *230:22 14.7 
3 *230:22 *230:24 5.715 
4 *230:24 *4471:A4 3.6 
5 *230:24 *230:35 6.42 
6 *230:35 *4490:A0 13.395 
7 *230:35 *230:46 2 
8 *230:46 *230:50 13.49 
9 *230:50 *230:56 21.29 
10 *230:56 *230:80 43.825 
11 *230:80 *4616:A 3.43 
12 *230:80 *4545:B 27.065 
13 *230:56 *4468:B 1.96 
14 *230:50 *4511:A1 5.87625 
15 *230:46 *4455:A3 8.755 
16 *230:22 *230:143 7.745 
17 *230:143 *4562:A 13.94 
18 *230:143 *4453:A 1.6 
*END

*D_NET *231 0.00592122
*CONN
*I *4459:A I *D sky130_fd_sc_hd__nor2_1
*I *4550:A1 I *D sky130_fd_sc_hd__a211o_1
*I *4643:A I *D sky130_fd_sc_hd__buf_2
*I *4477:A2 I *D sky130_fd_sc_hd__a21oi_4
*I *4618:X O *D sky130_fd_sc_hd__clkbuf_1
*CAP
1 *4459:A 0.000388639
2 *4550:A1 0
3 *4643:A 0.000127304
4 *4477:A2 4.86587e-05
5 *4618:X 0.00135038
6 *231:41 0.00114567
7 *231:10 0.000769304
8 *4477:A2 *234:49 3.66286e-05
9 *4477:A2 *234:63 8.8266e-05
10 *4643:A *234:49 0
11 *231:10 *234:49 0.000201508
12 *4457:B *231:41 9.54399e-05
13 *4477:B1 *231:10 4.99619e-05
14 *4522:A_N *231:41 0
15 *4522:B *231:41 0.00015829
16 *4527:A2 *4459:A 0
17 *4543:A2 *231:41 0
18 *4544:B1 *4459:A 0.00015537
19 *4550:C1 *4459:A 0
20 *4550:C1 *231:41 0
21 *4551:A1 *4459:A 0
22 *4555:A1 *231:41 7.4027e-05
23 *4556:B1 *4459:A 7.97734e-05
24 *4556:B1 *231:41 7.3664e-05
25 *4556:C1 *4459:A 7.63204e-05
26 *4570:A2 *4643:A 0
27 *94:10 *4459:A 0
28 *94:23 *4459:A 0
29 *157:36 *231:41 0
30 *157:47 *231:41 0
31 *158:28 *4459:A 6.97655e-05
32 *158:43 *4459:A 0.000161529
33 *230:80 *4643:A 5.60284e-05
34 *230:80 *231:10 0.000684655
35 *230:80 *231:41 3.00381e-05
*RES
1 *4618:X *231:10 14.59 
2 *231:10 *4477:A2 2.74 
3 *231:10 *4643:A 7.745 
4 *4618:X *231:41 16.335 
5 *231:41 *4550:A1 3.6 
6 *231:41 *4459:A 12.045 
*END

*D_NET *232 0.0146881
*CONN
*I *4449:C I *D sky130_fd_sc_hd__and3_4
*I *4455:B1 I *D sky130_fd_sc_hd__a31oi_4
*I *4513:A1 I *D sky130_fd_sc_hd__o22a_1
*I *4470:A I *D sky130_fd_sc_hd__or2_4
*I *4450:B I *D sky130_fd_sc_hd__nand2b_4
*I *4495:B I *D sky130_fd_sc_hd__nand2b_4
*I *4469:B I *D sky130_fd_sc_hd__nand2_2
*I *4482:B I *D sky130_fd_sc_hd__or2_4
*I *4507:A I *D sky130_fd_sc_hd__nand2_1
*I *4476:A I *D sky130_fd_sc_hd__nand2_2
*I *4619:X O *D sky130_fd_sc_hd__clkbuf_2
*CAP
1 *4449:C 0.000208938
2 *4455:B1 0
3 *4513:A1 2.08101e-05
4 *4470:A 0.000282766
5 *4450:B 0.000169392
6 *4495:B 3.28929e-05
7 *4469:B 0
8 *4482:B 0
9 *4507:A 0.000416372
10 *4476:A 0.000324108
11 *4619:X 0
12 *232:104 0.000344461
13 *232:61 9.43286e-05
14 *232:52 6.14357e-05
15 *232:50 0.000222514
16 *232:46 0.000412097
17 *232:37 0.00160752
18 *232:12 0.00160175
19 *232:6 0.000809988
20 *232:4 0.000761996
21 *4450:B *4450:A_N 0
22 *232:61 *4482:A 0.00015896
23 *4449:B *4449:C 7.57202e-05
24 *4455:A2 *4449:C 0
25 *4455:A2 *232:104 0
26 *4472:A2 *232:37 0
27 *4490:A0 *4449:C 0
28 *4490:A0 *232:104 0
29 *4508:A1 *4495:B 0.000138175
30 *4508:A1 *232:61 0.000196376
31 *4511:A1 *4476:A 0
32 *4511:A3 *4476:A 0.000120655
33 *4512:A2 *232:12 7.44453e-05
34 *4512:A2 *232:37 0.000107797
35 *4513:B2 *232:12 4.66108e-05
36 *4514:B1 *232:37 0
37 *4514:B2 *232:37 0
38 *4515:B1 *232:37 0.000107651
39 *4525:A2 *4476:A 0.000105988
40 *4525:B1 *4476:A 0.000132842
41 *4555:A2 *4476:A 0.000111285
42 *4562:A *232:37 0.000212398
43 *4563:A0 *232:37 0.000139238
44 *4563:S *232:37 0.000180314
45 *4648:A *4450:B 0
46 *64:20 *4470:A 0.000379905
47 *64:20 *4507:A 0.000266088
48 *64:20 *232:46 8.69182e-05
49 *64:24 *4507:A 0.000542788
50 *145:22 *4449:C 0.000276441
51 *149:10 *232:37 7.06865e-05
52 *149:22 *232:12 0.000136877
53 *149:22 *232:37 6.21553e-05
54 *150:10 *4450:B 0.000197592
55 *150:10 *232:37 0.000149224
56 *150:10 *232:50 0.000137571
57 *150:32 *232:37 0
58 *155:14 *4476:A 0.000304986
59 *167:12 *232:6 0.000124753
60 *167:14 *232:6 1.34503e-05
61 *167:14 *232:12 2.11084e-05
62 *167:20 *4513:A1 0
63 *167:20 *232:12 4.9634e-05
64 *169:10 *232:37 0.000181376
65 *169:16 *232:37 0.000158117
66 *172:10 *232:37 2.11552e-05
67 *173:36 *4449:C 0.000352161
68 *173:36 *232:37 5.44892e-05
69 *173:166 *232:37 0
70 *176:6 *4476:A 8.8266e-05
71 *195:16 *4450:B 1.7396e-05
72 *195:16 *4495:B 0.000241483
73 *195:16 *232:50 5.21627e-05
74 *195:16 *232:61 1.46828e-05
75 *219:38 *4476:A 0.00046193
76 *219:59 *4476:A 4.82863e-05
77 *227:10 *232:37 0.000131408
78 *227:16 *232:37 0.000134516
79 *227:22 *4476:A 0.000359405
80 *230:35 *4449:C 0
81 *230:50 *4476:A 0.000271303
82 *230:56 *4476:A 0
*RES
1 *4619:X *232:4 1.6 
2 *232:4 *232:6 9.075 
3 *232:6 *232:12 5.465 
4 *232:12 *4476:A 20.56 
5 *232:12 *232:37 25.7 
6 *232:37 *4507:A 10.675 
7 *232:37 *232:46 1.485 
8 *232:46 *232:50 3.635 
9 *232:50 *232:52 2 
10 *232:52 *4482:B 1.6 
11 *232:52 *232:61 2.19 
12 *232:61 *4469:B 1.6 
13 *232:61 *4495:B 3.775 
14 *232:50 *4450:B 7.05 
15 *232:46 *4470:A 7.57 
16 *232:6 *4513:A1 1.96 
17 *232:4 *232:104 4.085 
18 *232:104 *4455:B1 3.6 
19 *232:104 *4449:C 9.21 
*END

*D_NET *233 0.00515679
*CONN
*I *4672:A I *D sky130_fd_sc_hd__buf_2
*I *4619:A I *D sky130_fd_sc_hd__clkbuf_2
*I *4620:X O *D sky130_fd_sc_hd__clkbuf_1
*CAP
1 *4672:A 0
2 *4619:A 0.000147381
3 *4620:X 0.00200332
4 *233:18 0.0021507
5 *233:18 *4461:A2 2.50049e-05
6 *233:18 *4485:A 2.75229e-05
7 *233:18 *243:12 0
8 *54:25 *233:18 0.000295933
9 *143:16 *233:18 0
10 *161:20 *233:18 0.000210839
11 *162:12 *233:18 0.000296094
12 *185:12 *233:18 0
*RES
1 *4620:X *233:18 36.485 
2 *233:18 *4619:A 3.775 
3 *233:18 *4672:A 1.6 
*END

*D_NET *234 0.0232681
*CONN
*I *4522:C I *D sky130_fd_sc_hd__and3b_1
*I *4454:A_N I *D sky130_fd_sc_hd__nand2b_2
*I *4477:A1 I *D sky130_fd_sc_hd__a21oi_4
*I *4569:A1 I *D sky130_fd_sc_hd__a31oi_1
*I *4545:A I *D sky130_fd_sc_hd__nand2_1
*I *4576:A2 I *D sky130_fd_sc_hd__a311o_1
*I *4546:B I *D sky130_fd_sc_hd__and4_4
*I *4458:A I *D sky130_fd_sc_hd__xor2_2
*I *4567:B1 I *D sky130_fd_sc_hd__a21oi_1
*I *4457:A I *D sky130_fd_sc_hd__xnor2_2
*I *4621:X O *D sky130_fd_sc_hd__clkbuf_2
*CAP
1 *4522:C 9.11485e-05
2 *4454:A_N 0
3 *4477:A1 0
4 *4569:A1 1.44738e-05
5 *4545:A 0
6 *4576:A2 0.000673224
7 *4546:B 0
8 *4458:A 0.000239086
9 *4567:B1 4.96326e-05
10 *4457:A 0.000493199
11 *4621:X 0.00174328
12 *234:114 0.00109038
13 *234:100 0.000664222
14 *234:76 0.000239086
15 *234:74 0.000316218
16 *234:63 0.00138078
17 *234:49 0.001401
18 *234:39 0.000454883
19 *234:22 0.000880433
20 *234:20 0.000733206
21 *234:16 0.0022995
22 *4458:A *4546:A 4.66108e-05
23 *4576:A2 *238:55 0.000178314
24 *234:114 *238:55 0
25 *4457:B *4457:A 0
26 *4458:B *4458:A 2.58756e-05
27 *4477:A2 *234:49 3.66286e-05
28 *4477:A2 *234:63 8.8266e-05
29 *4477:B1 *234:49 8.25609e-05
30 *4497:A1 *234:16 0.000318119
31 *4507:B *234:16 0.000307935
32 *4522:A_N *4457:A 0.000163019
33 *4522:A_N *234:22 0.000151432
34 *4526:A *234:16 0.000111189
35 *4526:B *234:16 0.000184717
36 *4532:A2 *234:16 0
37 *4540:B2 *4522:C 0.000199833
38 *4540:C1 *234:20 0.000378513
39 *4543:A2 *4522:C 0.000199833
40 *4546:C *4458:A 6.38806e-05
41 *4552:A1 *234:16 0.000159964
42 *4568:C *234:63 4.13171e-05
43 *4568:C *234:74 5.65627e-05
44 *4568:C *234:100 2.79004e-05
45 *4569:B1 *234:114 1.53032e-05
46 *4570:A2 *234:49 8.53113e-06
47 *4572:A3 *4569:A1 4.94457e-05
48 *4572:A3 *234:100 2.59295e-05
49 *4574:B2 *4576:A2 0.000159156
50 *4575:A2 *4576:A2 4.94326e-05
51 *4575:B1 *4576:A2 5.69113e-05
52 *4577:A2 *4576:A2 0.000193553
53 *4577:B1 *4569:A1 6.69608e-06
54 *4577:B1 *4576:A2 4.1652e-06
55 *4577:B1 *234:114 0.00052712
56 *4577:B2 *4576:A2 0
57 *4578:C *4576:A2 1.82476e-05
58 *4643:A *234:49 0
59 *64:71 *4576:A2 0
60 *83:16 *234:20 0.000378513
61 *105:14 *234:100 0.000145298
62 *124:12 *234:114 0.000116158
63 *150:32 *234:16 0.00131309
64 *157:10 *4457:A 5.05437e-05
65 *157:21 *4457:A 0
66 *157:36 *234:22 0
67 *158:28 *234:100 8.53113e-06
68 *161:20 *234:16 0.000441262
69 *161:58 *234:20 4.47209e-05
70 *163:75 *234:16 5.82002e-05
71 *163:77 *234:16 0.000191882
72 *177:14 *234:63 0.000862732
73 *186:61 *4576:A2 0.000103265
74 *190:33 *234:20 0.000365298
75 *194:38 *234:39 0.000535676
76 *194:38 *234:49 1.83847e-05
77 *195:24 *234:16 0.000136599
78 *195:32 *234:16 0
79 *218:16 *234:63 0
80 *218:33 *4567:B1 4.80285e-05
81 *218:33 *234:63 0
82 *229:29 *234:63 0
83 *229:29 *234:74 0
84 *229:33 *4458:A 1.85674e-05
85 *229:33 *234:100 1.68333e-05
86 *229:42 *4458:A 2.32597e-05
87 *229:42 *234:100 8.52883e-05
88 *229:101 *234:39 0.00106828
89 *229:101 *234:49 4.82919e-05
90 *230:80 *234:49 0.000237243
91 *230:80 *234:63 4.99619e-05
92 *231:10 *234:49 0.000201508
*RES
1 *4621:X *234:16 45.62 
2 *234:16 *234:20 14.18 
3 *234:20 *234:22 1.89 
4 *234:22 *4457:A 11.61 
5 *234:22 *234:39 13.835 
6 *234:39 *234:49 8.515 
7 *234:49 *234:63 25.535 
8 *234:63 *4567:B1 4.395 
9 *234:63 *234:74 1.38 
10 *234:74 *234:76 2 
11 *234:76 *4458:A 5.095 
12 *234:76 *4546:B 1.6 
13 *234:74 *234:100 6.095 
14 *234:100 *234:114 13.465 
15 *234:114 *4576:A2 21.54 
16 *234:114 *4545:A 1.6 
17 *234:100 *4569:A1 2.05 
18 *234:49 *4477:A1 1.6 
19 *234:39 *4454:A_N 1.6 
20 *234:20 *4522:C 6.3 
*END

*D_NET *235 0.00207261
*CONN
*I *4443:A1 I *D sky130_fd_sc_hd__mux2_8
*I *4638:X O *D sky130_fd_sc_hd__buf_1
*CAP
1 *4443:A1 0.000586776
2 *4638:X 0.000586776
3 *4443:A1 *4473:A1 0.000500121
4 *4447:A1 *4443:A1 8.73389e-06
5 *4581:C *4443:A1 1.52945e-05
6 *4582:A1 *4443:A1 0
7 *4583:B *4443:A1 0.000148968
8 *4604:RESET_B *4443:A1 9.54399e-05
9 *4627:A *4443:A1 0
10 *199:38 *4443:A1 0.000130506
11 *221:12 *4443:A1 0
12 *225:56 *4443:A1 0
*RES
1 *4638:X *4443:A1 18.575 
*END

*D_NET *236 0.00360383
*CONN
*I *4645:A I *D sky130_fd_sc_hd__buf_2
*I *4450:A_N I *D sky130_fd_sc_hd__nand2b_4
*I *4469:A I *D sky130_fd_sc_hd__nand2_2
*I *4482:A I *D sky130_fd_sc_hd__or2_4
*I *4515:A1 I *D sky130_fd_sc_hd__a22o_4
*I *4622:X O *D sky130_fd_sc_hd__clkbuf_1
*CAP
1 *4645:A 0
2 *4450:A_N 0.000199755
3 *4469:A 0
4 *4482:A 5.76734e-05
5 *4515:A1 0
6 *4622:X 0.000102517
7 *236:29 5.76734e-05
8 *236:27 0.000823652
9 *236:14 0.000696044
10 *236:12 0.000174663
11 *4450:B *4450:A_N 0
12 *4508:A1 *4482:A 6.16148e-05
13 *4508:A1 *236:27 0
14 *4509:C *236:12 4.10827e-05
15 *4515:A2 *236:27 6.90876e-05
16 *4515:B1 *236:27 0.00012657
17 *4515:B2 *236:14 5.30673e-05
18 *4515:B2 *236:27 1.12578e-05
19 *150:10 *236:27 0
20 *169:10 *4482:A 0.000159741
21 *170:8 *236:12 0
22 *170:8 *236:27 0
23 *186:16 *236:14 0.000131791
24 *186:16 *236:27 0.000278117
25 *195:16 *4450:A_N 2.07184e-05
26 *195:16 *4482:A 4.66108e-05
27 *195:16 *236:27 0.000222813
28 *222:10 *236:14 2.67275e-05
29 *230:22 *236:12 7.70938e-05
30 *230:143 *236:12 6.60261e-06
31 *232:61 *4482:A 0.00015896
*RES
1 *4622:X *236:12 7.685 
2 *236:12 *236:14 2.175 
3 *236:14 *4515:A1 1.6 
4 *236:14 *236:27 14.675 
5 *236:27 *236:29 2 
6 *236:29 *4482:A 3.775 
7 *236:29 *4469:A 1.6 
8 *236:27 *4450:A_N 6.795 
9 *236:12 *4645:A 1.6 
*END

*D_NET *237 0.0023629
*CONN
*I *4644:A I *D sky130_fd_sc_hd__buf_2
*I *4523:A I *D sky130_fd_sc_hd__or3_1
*I *4537:C1 I *D sky130_fd_sc_hd__a211o_1
*I *4538:D1 I *D sky130_fd_sc_hd__a2111oi_1
*I *4623:X O *D sky130_fd_sc_hd__clkbuf_1
*CAP
1 *4644:A 4.12952e-05
2 *4523:A 0
3 *4537:C1 0.000115388
4 *4538:D1 2.04193e-05
5 *4623:X 3.58834e-05
6 *237:16 0.000372498
7 *237:10 0.000450583
8 *237:8 0.00029107
9 *4524:C1 *237:10 7.55391e-05
10 *4537:B1 *4537:C1 8.6098e-05
11 *4539:B1 *4538:D1 4.82863e-05
12 *4539:B1 *237:16 4.82919e-05
13 *4623:A *4644:A 0
14 *83:16 *237:16 2.16389e-05
15 *155:20 *237:8 2.75229e-05
16 *161:58 *4644:A 6.68849e-05
17 *161:58 *237:10 0.000484183
18 *161:58 *237:16 0.000159957
19 *194:74 *4537:C1 1.73593e-05
20 *194:74 *237:16 0
*RES
1 *4623:X *237:8 4.05 
2 *237:8 *237:10 5.715 
3 *237:10 *237:16 6.47 
4 *237:16 *4538:D1 2.05 
5 *237:16 *4537:C1 8 
6 *237:10 *4523:A 3.6 
7 *237:8 *4644:A 4.47 
*END

*D_NET *238 0.0101669
*CONN
*I *4527:B1 I *D sky130_fd_sc_hd__o21a_1
*I *4544:B2 I *D sky130_fd_sc_hd__a221o_1
*I *4576:A1 I *D sky130_fd_sc_hd__a311o_1
*I *4464:B1 I *D sky130_fd_sc_hd__a21oi_2
*I *4546:A I *D sky130_fd_sc_hd__and4_4
*I *4567:A1 I *D sky130_fd_sc_hd__a21oi_1
*I *4578:A I *D sky130_fd_sc_hd__and3_1
*I *4624:X O *D sky130_fd_sc_hd__buf_1
*CAP
1 *4527:B1 7.8675e-05
2 *4544:B2 0
3 *4576:A1 2.28825e-05
4 *4464:B1 0
5 *4546:A 1.36534e-05
6 *4567:A1 7.0408e-05
7 *4578:A 3.8616e-05
8 *4624:X 0.000109551
9 *238:61 0.000199892
10 *238:55 0.000547346
11 *238:40 0.000623529
12 *238:38 0.00100027
13 *238:22 0.001556
14 *238:10 0.000920236
15 *4458:A *4546:A 4.66108e-05
16 *4503:A *4578:A 7.17466e-05
17 *4503:A *238:38 7.10083e-05
18 *4503:A *238:40 0.000410675
19 *4529:A1 *4527:B1 0.000148794
20 *4529:A1 *238:10 0.000358937
21 *4544:A2 *238:38 1.2818e-05
22 *4544:B1 *238:22 0.0008267
23 *4544:B1 *238:38 8.61797e-05
24 *4544:C1 *238:22 4.91952e-05
25 *4545:B *238:38 0.000182615
26 *4546:C *4546:A 4.66108e-05
27 *4548:A2 *238:38 3.00381e-05
28 *4556:A2 *238:10 4.66108e-05
29 *4568:C *4567:A1 9.14049e-05
30 *4568:C *238:55 1.52184e-05
31 *4568:C *238:61 0.000287015
32 *4574:B2 *238:55 0
33 *4575:A2 *238:38 5.83373e-05
34 *4576:A2 *238:55 0.000178314
35 *4577:A3 *4578:A 0
36 *4577:A3 *238:40 5.52212e-05
37 *4577:B1 *238:40 8.185e-05
38 *4578:B *238:40 1.33285e-05
39 *4578:C *238:55 6.02202e-05
40 *4579:S *4578:A 1.83756e-05
41 *4579:S *238:40 6.02297e-05
42 *66:10 *238:38 2.14672e-05
43 *105:31 *238:38 2.16306e-05
44 *105:31 *238:55 7.23602e-05
45 *158:28 *238:61 4.82919e-05
46 *158:43 *238:22 5.28802e-05
47 *159:10 *238:22 0.000124007
48 *161:39 *4527:B1 0.000157325
49 *161:39 *238:10 0.000358937
50 *163:43 *238:38 0.000191702
51 *163:52 *4576:A1 2.35144e-05
52 *163:52 *238:40 1.56428e-05
53 *173:81 *238:10 2.49909e-05
54 *177:14 *238:38 7.58604e-05
55 *177:26 *4576:A1 7.0105e-05
56 *177:26 *238:40 0.000118081
57 *218:33 *4567:A1 2.11084e-05
58 *218:41 *4567:A1 5.13155e-05
59 *218:41 *238:61 2.0562e-05
60 *218:52 *238:61 0.000183043
61 *224:14 *4527:B1 2.49909e-05
62 *234:114 *238:55 0
*RES
1 *4624:X *238:10 8.235 
2 *238:10 *238:22 16.1488 
3 *238:22 *238:38 19.0713 
4 *238:38 *238:40 5.28 
5 *238:40 *4578:A 2.665 
6 *238:40 *238:55 12.265 
7 *238:55 *238:61 5.54 
8 *238:61 *4567:A1 5.175 
9 *238:61 *4546:A 4.05 
10 *238:55 *4464:B1 1.6 
11 *238:38 *4576:A1 2.41 
12 *238:22 *4544:B2 1.6 
13 *238:10 *4527:B1 5.94 
*END

*D_NET *239 0.000893484
*CONN
*I *4471:A1 I *D sky130_fd_sc_hd__a41o_1
*I *4671:A I *D sky130_fd_sc_hd__buf_2
*I *4625:X O *D sky130_fd_sc_hd__clkbuf_1
*CAP
1 *4471:A1 7.87169e-05
2 *4671:A 0.000147193
3 *4625:X 5.74715e-05
4 *239:8 0.000283382
5 *143:33 *4671:A 0.000138799
6 *143:33 *239:8 8.65961e-05
7 *222:10 *4471:A1 6.00003e-05
8 *222:10 *4671:A 4.13249e-05
9 *230:24 *4471:A1 0
10 *230:35 *4471:A1 0
11 *230:35 *4671:A 0
*RES
1 *4625:X *239:8 4.395 
2 *239:8 *4671:A 6.645 
3 *239:8 *4471:A1 4.98 
*END

*D_NET *240 0.00770715
*CONN
*I *4478:A1 I *D sky130_fd_sc_hd__a21oi_1
*I *4483:A I *D sky130_fd_sc_hd__nor2_1
*I *4506:A I *D sky130_fd_sc_hd__and3_4
*I *4561:A1 I *D sky130_fd_sc_hd__a32o_1
*I *4535:A1 I *D sky130_fd_sc_hd__a32o_1
*I *4451:A I *D sky130_fd_sc_hd__nand2_1
*I *4626:X O *D sky130_fd_sc_hd__buf_1
*CAP
1 *4478:A1 0
2 *4483:A 9.84912e-05
3 *4506:A 0.000792786
4 *4561:A1 0.000219156
5 *4535:A1 0
6 *4451:A 8.97736e-05
7 *4626:X 0
8 *240:58 0.000673237
9 *240:32 0.00118859
10 *240:21 0.000431956
11 *240:8 0.000529009
12 *240:4 0.000758675
13 *4484:B2 *240:58 0.000842424
14 *4499:B2 *4483:A 0.000116853
15 *4506:C *4506:A 0.000165698
16 *4520:A1 *4483:A 0.00011852
17 *4535:B1 *4451:A 4.82863e-05
18 *4535:B1 *240:8 0.000201508
19 *4535:B1 *240:21 0.000441818
20 *4549:B1 *4506:A 0
21 *4561:A2 *4561:A1 0.00015806
22 *4561:A2 *240:21 2.50049e-05
23 *4561:A2 *240:32 0.000165592
24 *4650:A *4506:A 0
25 *64:41 *4506:A 0.000238
26 *64:41 *4561:A1 2.20732e-05
27 *64:45 *4561:A1 1.33293e-05
28 *186:37 *240:8 8.49955e-05
29 *186:37 *240:58 7.67415e-06
30 *186:45 *4451:A 9.52646e-05
31 *186:45 *240:8 0.000180373
*RES
1 *4626:X *240:4 1.6 
2 *240:4 *240:8 4.605 
3 *240:8 *4451:A 3.445 
4 *240:8 *240:21 7.715 
5 *240:21 *4535:A1 3.6 
6 *240:21 *240:32 5.675 
7 *240:32 *4561:A1 4.48 
8 *240:32 *4506:A 16.58 
9 *240:4 *240:58 8.04 
10 *240:58 *4483:A 7.775 
11 *240:58 *4478:A1 1.6 
*END

*D_NET *241 0.0100342
*CONN
*I *4447:S I *D sky130_fd_sc_hd__mux2_1
*I *4443:S I *D sky130_fd_sc_hd__mux2_8
*I *4460:A I *D sky130_fd_sc_hd__or2_4
*I *4473:S I *D sky130_fd_sc_hd__mux2_8
*I *4462:S I *D sky130_fd_sc_hd__mux2_1
*I *4452:S I *D sky130_fd_sc_hd__mux2_1
*I *4441:A I *D sky130_fd_sc_hd__inv_6
*I *4445:A_N I *D sky130_fd_sc_hd__nand2b_4
*I *4444:B I *D sky130_fd_sc_hd__nand2_2
*I *4446:S I *D sky130_fd_sc_hd__mux2_1
*I *4627:X O *D sky130_fd_sc_hd__clkbuf_2
*CAP
1 *4447:S 0.000176886
2 *4443:S 0.000367759
3 *4460:A 0
4 *4473:S 0.000330365
5 *4462:S 3.74623e-05
6 *4452:S 0.00023398
7 *4441:A 0
8 *4445:A_N 0
9 *4444:B 0.000262589
10 *4446:S 7.88079e-05
11 *4627:X 0
12 *241:97 0.00062494
13 *241:76 0.000532992
14 *241:63 0.000353402
15 *241:59 0.000215229
16 *241:37 0.000634016
17 *241:17 0.000388593
18 *241:15 0.00052604
19 *241:6 0.000477257
20 *241:4 0.000420071
21 *4444:B *4501:A2 0
22 *4447:S *243:12 0.000131401
23 *4452:S *251:12 0.000178255
24 *4473:S *4473:A1 0.000391605
25 *241:17 *4501:A2 0
26 *241:37 *4501:A2 0
27 *241:37 *251:12 0.000567634
28 *241:63 *4461:A2 0
29 *241:63 *243:12 0.000296775
30 *241:76 *4473:A1 0.000187759
31 *241:97 *243:12 0.000220672
32 *4443:A0 *4443:S 4.05674e-06
33 *4445:B *4444:B 0
34 *4445:B *241:17 0
35 *4445:B *241:37 0
36 *4447:A0 *4447:S 5.30673e-05
37 *4452:A0 *4452:S 0.000124895
38 *4452:A1 *4452:S 0.000250076
39 *4462:A0 *4462:S 5.05437e-05
40 *4462:A0 *241:76 0.000172448
41 *4473:A0 *4473:S 4.05674e-06
42 *4602:RESET_B *4452:S 0
43 *4602:RESET_B *241:37 0
44 *4612:A *4447:S 0
45 *4612:A *241:97 0
46 *54:10 *241:37 0
47 *64:20 *4444:B 0
48 *64:20 *241:37 0
49 *143:16 *4473:S 0
50 *143:16 *241:63 0.000203509
51 *143:16 *241:76 0
52 *143:16 *241:97 8.71001e-05
53 *161:20 *4444:B 0.000207887
54 *221:12 *4446:S 0.000201503
55 *221:12 *241:6 0.000993965
56 *221:12 *241:59 4.66108e-05
*RES
1 *4627:X *241:4 1.6 
2 *241:4 *241:6 9.075 
3 *241:6 *4446:S 3.43 
4 *241:6 *241:15 2 
5 *241:15 *241:17 2.145 
6 *241:17 *4444:B 8.7 
7 *241:17 *4445:A_N 3.6 
8 *241:15 *241:37 8.52 
9 *241:37 *4441:A 3.6 
10 *241:37 *4452:S 9.645 
11 *241:4 *241:59 2.45 
12 *241:59 *241:63 6.185 
13 *241:63 *4462:S 2.395 
14 *241:63 *241:76 6.665 
15 *241:76 *4473:S 8.5025 
16 *241:76 *4460:A 3.6 
17 *241:59 *241:97 2.655 
18 *241:97 *4443:S 6.8975 
19 *241:97 *4447:S 7.065 
*END

*D_NET *242 0.00424409
*CONN
*I *4646:A I *D sky130_fd_sc_hd__clkbuf_2
*I *4600:A I *D sky130_fd_sc_hd__inv_1
*I *4485:A I *D sky130_fd_sc_hd__or2_4
*I *4601:A I *D sky130_fd_sc_hd__inv_1
*I *4500:A I *D sky130_fd_sc_hd__or2_4
*I *4628:X O *D sky130_fd_sc_hd__clkbuf_1
*CAP
1 *4646:A 0
2 *4600:A 0
3 *4485:A 0.000145679
4 *4601:A 0.000133986
5 *4500:A 0.000125308
6 *4628:X 0.000103002
7 *242:24 0.000367475
8 *242:20 0.000900884
9 *242:14 0.00130107
10 *242:12 0.000757053
11 *4501:B1 *4485:A 0
12 *4591:A *242:20 0.000201503
13 *4591:B *242:20 2.50702e-05
14 *4608:RESET_B *242:20 1.08975e-05
15 *4609:CLK *4601:A 1.577e-05
16 *4628:A *242:12 0.00011852
17 *141:10 *242:20 1.03423e-05
18 *233:18 *4485:A 2.75229e-05
*RES
1 *4628:X *242:12 7.43 
2 *242:12 *242:14 9.67125 
3 *242:14 *242:20 9.88875 
4 *242:20 *242:24 1.755 
5 *242:24 *4500:A 3.43 
6 *242:24 *4601:A 7.72625 
7 *242:20 *4485:A 7.94 
8 *242:14 *4600:A 1.6 
9 *242:12 *4646:A 1.6 
*END

*D_NET *243 0.00369327
*CONN
*I *4462:A1 I *D sky130_fd_sc_hd__mux2_1
*I *4461:A2 I *D sky130_fd_sc_hd__o21ai_4
*I *4639:X O *D sky130_fd_sc_hd__buf_1
*CAP
1 *4462:A1 0
2 *4461:A2 0.000182498
3 *4639:X 0.000837836
4 *243:12 0.00102033
5 *4447:A1 *243:12 0
6 *4447:S *243:12 0.000131401
7 *4462:A0 *4461:A2 4.99619e-05
8 *4462:A0 *243:12 0.000114912
9 *4602:CLK *243:12 0.000159957
10 *4604:D *243:12 5.39718e-05
11 *4612:A *243:12 0
12 *4620:A *243:12 0
13 *54:25 *243:12 0
14 *143:16 *4461:A2 0
15 *161:20 *4461:A2 0.000209179
16 *209:16 *243:12 0.000390768
17 *233:18 *4461:A2 2.50049e-05
18 *233:18 *243:12 0
19 *241:63 *4461:A2 0
20 *241:63 *243:12 0.000296775
21 *241:97 *243:12 0.000220672
*RES
1 *4639:X *243:12 23.93 
2 *243:12 *4461:A2 9.305 
3 *243:12 *4462:A1 1.6 
*END

*D_NET *244 0.000768958
*CONN
*I *4594:A I *D sky130_fd_sc_hd__xnor2_1
*I *4629:X O *D sky130_fd_sc_hd__dlygate4sd3_1
*CAP
1 *4594:A 0.000286481
2 *4629:X 0.000286481
3 *4500:B *4594:A 2.75229e-05
4 *4594:B *4594:A 4.82863e-05
5 *4609:D *4594:A 0.000120186
6 *206:12 *4594:A 0
*RES
1 *4629:X *4594:A 12.12 
*END

*D_NET *245 0.00489759
*CONN
*I *4580:B I *D sky130_fd_sc_hd__xor2_1
*I *4442:A I *D sky130_fd_sc_hd__inv_1
*I *4630:X O *D sky130_fd_sc_hd__dlygate4sd3_1
*CAP
1 *4580:B 0.00133589
2 *4442:A 4.04835e-05
3 *4630:X 7.71938e-05
4 *245:12 0.00145357
5 *4580:B *4582:B1 2.16917e-05
6 *4581:C *4580:B 0.000160635
7 *4582:A1 *4580:B 9.80032e-06
8 *4602:CLK *4580:B 0.000469632
9 *4602:D *4442:A 4.15527e-05
10 *4602:D *4580:B 0.00033916
11 *4610:A *4580:B 0.00013521
12 *4631:A *4580:B 0.000183488
13 *199:8 *4442:A 1.16578e-05
14 *199:8 *4580:B 3.66286e-05
15 *199:25 *245:12 9.47454e-05
16 *200:16 *4580:B 0.000428764
17 *225:56 *4580:B 5.74791e-05
*RES
1 *4630:X *245:12 7.085 
2 *245:12 *4442:A 2.48875 
3 *245:12 *4580:B 31.145 
*END

*D_NET *246 0.000187481
*CONN
*I *4582:B1 I *D sky130_fd_sc_hd__a21oi_1
*I *4631:X O *D sky130_fd_sc_hd__dlygate4sd3_1
*CAP
1 *4582:B1 1.46187e-05
2 *4631:X 1.46187e-05
3 *4580:B *4582:B1 2.16917e-05
4 *4581:C *4582:B1 4.82863e-05
5 *4582:A1 *4582:B1 8.8266e-05
*RES
1 *4631:X *4582:B1 3.995 
*END

*D_NET *247 0.00128466
*CONN
*I *4580:A I *D sky130_fd_sc_hd__xor2_1
*I *4632:X O *D sky130_fd_sc_hd__dlygate4sd3_1
*CAP
1 *4580:A 0.000404711
2 *4632:X 0.000404711
3 *4603:D *4580:A 8.8266e-05
4 *4603:RESET_B *4580:A 3.51596e-05
5 *4628:A *4580:A 0
6 *200:16 *4580:A 0.000249341
7 *225:50 *4580:A 1.03783e-05
8 *225:56 *4580:A 9.20884e-05
*RES
1 *4632:X *4580:A 13.98 
*END

*D_NET *248 0.00138072
*CONN
*I *4587:A I *D sky130_fd_sc_hd__xor2_1
*I *4633:X O *D sky130_fd_sc_hd__dlygate4sd3_1
*CAP
1 *4587:A 0.000488852
2 *4633:X 0.000488852
3 *4606:CLK *4587:A 5.51245e-05
4 *4606:D *4587:A 0.000128939
5 *4628:A *4587:A 0
6 *137:8 *4587:A 0
7 *203:14 *4587:A 0.000124753
8 *208:8 *4587:A 8.40213e-05
9 *208:10 *4587:A 1.0183e-05
*RES
1 *4633:X *4587:A 15.315 
*END

*D_NET *249 0.00511692
*CONN
*I *4473:A1 I *D sky130_fd_sc_hd__mux2_8
*I *4640:X O *D sky130_fd_sc_hd__buf_1
*CAP
1 *4473:A1 0.00122718
2 *4640:X 0.00122718
3 *4443:A1 *4473:A1 0.000500121
4 *4447:A1 *4473:A1 0
5 *4460:B *4473:A1 0.000210839
6 *4473:S *4473:A1 0.000391605
7 *4604:RESET_B *4473:A1 9.71067e-05
8 *4611:A *4473:A1 9.70786e-05
9 *4612:A *4473:A1 0.00073882
10 *4627:A *4473:A1 0
11 *143:16 *4473:A1 0
12 *199:38 *4473:A1 0.000439235
13 *241:76 *4473:A1 0.000187759
*RES
1 *4640:X *4473:A1 35.9675 
*END

*D_NET *250 0.000955524
*CONN
*I *4589:B1 I *D sky130_fd_sc_hd__a21oi_1
*I *4634:X O *D sky130_fd_sc_hd__dlygate4sd3_1
*CAP
1 *4589:B1 7.43336e-05
2 *4634:X 7.43336e-05
3 *4588:A *4589:B1 0.000513573
4 *4588:C *4589:B1 0.000160635
5 *4589:A2 *4589:B1 8.65905e-05
6 *204:16 *4589:B1 4.60584e-05
*RES
1 *4634:X *4589:B1 7.1 
*END

*D_NET *251 0.00396203
*CONN
*I *4487:A2 I *D sky130_fd_sc_hd__o21a_1
*I *4486:A2 I *D sky130_fd_sc_hd__o21ai_4
*I *4641:X O *D sky130_fd_sc_hd__buf_1
*CAP
1 *4487:A2 9.04154e-05
2 *4486:A2 0
3 *4641:X 0.000916945
4 *251:12 0.00100736
5 *251:12 *4501:A2 0
6 *4452:A0 *251:12 0
7 *4452:S *251:12 0.000178255
8 *4486:B1 *4487:A2 0
9 *4487:A1 *4487:A2 0.000445837
10 *4487:B1 *4487:A2 5.14357e-05
11 *4602:RESET_B *251:12 0
12 *64:20 *251:12 0
13 *185:12 *4487:A2 0.000122155
14 *199:25 *251:12 0
15 *199:38 *251:12 0.000581986
16 *241:37 *251:12 0.000567634
*RES
1 *4641:X *251:12 23.735 
2 *251:12 *4486:A2 1.6 
3 *251:12 *4487:A2 5.515 
*END

*D_NET *252 0.00359057
*CONN
*I *4501:A2 I *D sky130_fd_sc_hd__o21ai_4
*I *4642:X O *D sky130_fd_sc_hd__buf_1
*CAP
1 *4501:A2 0.00131142
2 *4642:X 0.00131142
3 *4444:B *4501:A2 0
4 *4501:A1 *4501:A2 0.000187416
5 *4501:B1 *4501:A2 0.000145184
6 *4602:RESET_B *4501:A2 0.000189815
7 *54:10 *4501:A2 0.000208071
8 *143:16 *4501:A2 0.000237243
9 *185:12 *4501:A2 0
10 *241:17 *4501:A2 0
11 *241:37 *4501:A2 0
12 *251:12 *4501:A2 0
*RES
1 *4642:X *4501:A2 33.555 
*END

*D_NET *253 0.00290259
*CONN
*I *4654:A I *D sky130_fd_sc_hd__clkbuf_1
*I *4508:X O *D sky130_fd_sc_hd__a32o_1
*CAP
1 *4654:A 0.000956808
2 *4508:X 0.000956808
3 *4647:A *4654:A 0.000388268
4 *4649:A *4654:A 0
5 *4650:A *4654:A 5.0751e-05
6 *4651:A *4654:A 0.000119512
7 *182:10 *4654:A 0.00043044
*RES
1 *4508:X *4654:A 24.555 
*END
