*SPEF "ieee 1481-1999"
*DESIGN "tt_um_chip_rom"
*DATE "12:23:42 Wednesday September 16, 2026"
*VENDOR "The OpenROAD Project"
*PROGRAM "OpenROAD"
*VERSION "341650e72dad0dc8571822ff8c5d9c5e365327f7"
*DESIGN_FLOW "NAME_SCOPE LOCAL" "PIN_CAP NONE"
*DIVIDER /
*DELIMITER :
*BUS_DELIMITER []
*T_UNIT 1 NS
*C_UNIT 1 PF
*R_UNIT 1 OHM
*L_UNIT 1 HENRY

*NAME_MAP
*3 clk
*4 ena
*5 rst_n
*6 ui_in[0]
*7 ui_in[1]
*8 ui_in[2]
*9 ui_in[3]
*10 ui_in[4]
*11 ui_in[5]
*12 ui_in[6]
*13 ui_in[7]
*14 uio_in[0]
*15 uio_in[1]
*16 uio_in[2]
*17 uio_in[3]
*18 uio_in[4]
*19 uio_in[5]
*20 uio_in[6]
*21 uio_in[7]
*22 net26
*23 net27
*24 net28
*25 net29
*26 net30
*27 net31
*28 net32
*29 net33
*30 net49
*31 net50
*32 net51
*33 net52
*34 net53
*35 net54
*36 net55
*37 net56
*38 uo_out[0]
*39 uo_out[1]
*40 uo_out[2]
*41 uo_out[3]
*42 uo_out[4]
*43 uo_out[5]
*44 uo_out[6]
*45 uo_out[7]
*46 _000_
*47 _001_
*48 _002_
*49 _003_
*50 _004_
*51 _005_
*52 _006_
*53 _007_
*54 _008_
*55 _009_
*56 _010_
*57 _011_
*58 _012_
*59 _013_
*60 _014_
*61 _015_
*62 _016_
*63 _017_
*64 _018_
*65 _019_
*66 _020_
*67 _021_
*68 _022_
*69 _023_
*70 _024_
*71 _025_
*72 _026_
*73 _027_
*74 _028_
*75 _029_
*76 _030_
*77 _031_
*78 _032_
*79 _033_
*80 _034_
*81 _035_
*82 _036_
*83 _037_
*84 _038_
*85 _039_
*86 _040_
*87 _041_
*88 _042_
*89 _043_
*90 _044_
*91 _045_
*92 _046_
*93 _047_
*94 _048_
*95 _049_
*96 _050_
*97 _051_
*98 _052_
*99 _053_
*100 _054_
*101 _055_
*102 _056_
*103 _057_
*104 _058_
*105 _059_
*106 _060_
*107 _061_
*108 _062_
*109 _063_
*110 _064_
*111 _065_
*112 _066_
*113 _067_
*114 _068_
*115 _069_
*116 _070_
*117 _071_
*118 _072_
*119 _073_
*120 _074_
*121 _075_
*122 _076_
*123 _077_
*124 _078_
*125 _079_
*126 _080_
*127 _081_
*128 _082_
*129 _083_
*130 _084_
*131 _085_
*132 _086_
*133 _087_
*134 _088_
*135 _089_
*136 _090_
*137 _091_
*138 _092_
*139 _093_
*140 _094_
*141 _095_
*142 _096_
*143 _097_
*144 _098_
*145 _099_
*146 _100_
*147 _101_
*148 _102_
*149 _103_
*150 _104_
*151 _105_
*152 _106_
*153 _107_
*154 _108_
*155 _109_
*156 _110_
*157 _111_
*158 _112_
*159 _113_
*160 _114_
*161 _115_
*162 _116_
*163 _117_
*164 _118_
*165 _119_
*166 _120_
*167 _121_
*168 _122_
*169 _123_
*170 _124_
*171 _125_
*172 _126_
*173 _127_
*174 _128_
*175 _129_
*176 _130_
*177 _131_
*178 _132_
*179 _133_
*180 _134_
*181 _135_
*182 _136_
*183 _137_
*184 _138_
*185 _139_
*186 _140_
*187 _141_
*188 _142_
*189 _143_
*190 _144_
*191 _145_
*192 _146_
*193 _147_
*194 _148_
*195 _149_
*196 _150_
*197 _151_
*198 _152_
*199 _153_
*200 _154_
*201 _155_
*202 _156_
*203 addr_counter\[0\]
*204 addr_counter\[1\]
*205 addr_counter\[2\]
*206 addr_counter\[3\]
*207 addr_counter\[4\]
*208 addr_counter\[5\]
*209 addr_counter\[6\]
*210 addr_counter\[7\]
*211 clknet_0_clk
*212 clknet_1_0__leaf_clk
*213 clknet_1_1__leaf_clk
*214 net1
*215 net10
*216 net11
*217 net12
*218 net13
*219 net14
*220 net15
*221 net16
*222 net17
*223 net18
*224 net19
*225 net2
*226 net20
*227 net21
*228 net22
*229 net23
*230 net24
*231 net25
*232 net3
*233 net34
*234 net35
*235 net36
*236 net37
*237 net38
*238 net39
*239 net4
*240 net40
*241 net41
*242 net42
*243 net43
*244 net44
*245 net45
*246 net46
*247 net47
*248 net48
*249 net5
*250 net57
*251 net58
*252 net59
*253 net6
*254 net60
*255 net61
*256 net62
*257 net7
*258 net8
*259 net9
*260 FILLER_0_100
*261 FILLER_0_103
*262 FILLER_0_106
*263 FILLER_0_109
*264 FILLER_0_113
*265 FILLER_0_116
*266 FILLER_0_119
*267 FILLER_0_12
*268 FILLER_0_122
*269 FILLER_0_125
*270 FILLER_0_128
*271 FILLER_0_131
*272 FILLER_0_134
*273 FILLER_0_137
*274 FILLER_0_141
*275 FILLER_0_144
*276 FILLER_0_147
*277 FILLER_0_15
*278 FILLER_0_150
*279 FILLER_0_153
*280 FILLER_0_156
*281 FILLER_0_159
*282 FILLER_0_162
*283 FILLER_0_165
*284 FILLER_0_169
*285 FILLER_0_172
*286 FILLER_0_175
*287 FILLER_0_178
*288 FILLER_0_18
*289 FILLER_0_181
*290 FILLER_0_184
*291 FILLER_0_187
*292 FILLER_0_190
*293 FILLER_0_193
*294 FILLER_0_197
*295 FILLER_0_200
*296 FILLER_0_203
*297 FILLER_0_206
*298 FILLER_0_209
*299 FILLER_0_21
*300 FILLER_0_212
*301 FILLER_0_215
*302 FILLER_0_218
*303 FILLER_0_221
*304 FILLER_0_225
*305 FILLER_0_228
*306 FILLER_0_231
*307 FILLER_0_234
*308 FILLER_0_237
*309 FILLER_0_24
*310 FILLER_0_240
*311 FILLER_0_243
*312 FILLER_0_246
*313 FILLER_0_249
*314 FILLER_0_253
*315 FILLER_0_256
*316 FILLER_0_259
*317 FILLER_0_262
*318 FILLER_0_265
*319 FILLER_0_268
*320 FILLER_0_27
*321 FILLER_0_271
*322 FILLER_0_274
*323 FILLER_0_277
*324 FILLER_0_281
*325 FILLER_0_284
*326 FILLER_0_287
*327 FILLER_0_29
*328 FILLER_0_290
*329 FILLER_0_293
*330 FILLER_0_296
*331 FILLER_0_299
*332 FILLER_0_3
*333 FILLER_0_302
*334 FILLER_0_305
*335 FILLER_0_309
*336 FILLER_0_312
*337 FILLER_0_315
*338 FILLER_0_318
*339 FILLER_0_32
*340 FILLER_0_321
*341 FILLER_0_324
*342 FILLER_0_327
*343 FILLER_0_330
*344 FILLER_0_333
*345 FILLER_0_35
*346 FILLER_0_38
*347 FILLER_0_41
*348 FILLER_0_44
*349 FILLER_0_47
*350 FILLER_0_50
*351 FILLER_0_53
*352 FILLER_0_57
*353 FILLER_0_6
*354 FILLER_0_60
*355 FILLER_0_63
*356 FILLER_0_66
*357 FILLER_0_69
*358 FILLER_0_72
*359 FILLER_0_75
*360 FILLER_0_78
*361 FILLER_0_81
*362 FILLER_0_85
*363 FILLER_0_88
*364 FILLER_0_9
*365 FILLER_0_91
*366 FILLER_0_94
*367 FILLER_0_97
*368 FILLER_10_100
*369 FILLER_10_103
*370 FILLER_10_106
*371 FILLER_10_109
*372 FILLER_10_112
*373 FILLER_10_115
*374 FILLER_10_118
*375 FILLER_10_12
*376 FILLER_10_121
*377 FILLER_10_124
*378 FILLER_10_127
*379 FILLER_10_130
*380 FILLER_10_133
*381 FILLER_10_136
*382 FILLER_10_139
*383 FILLER_10_141
*384 FILLER_10_144
*385 FILLER_10_147
*386 FILLER_10_15
*387 FILLER_10_150
*388 FILLER_10_153
*389 FILLER_10_156
*390 FILLER_10_159
*391 FILLER_10_162
*392 FILLER_10_165
*393 FILLER_10_168
*394 FILLER_10_171
*395 FILLER_10_174
*396 FILLER_10_177
*397 FILLER_10_18
*398 FILLER_10_180
*399 FILLER_10_183
*400 FILLER_10_186
*401 FILLER_10_189
*402 FILLER_10_192
*403 FILLER_10_195
*404 FILLER_10_197
*405 FILLER_10_200
*406 FILLER_10_203
*407 FILLER_10_206
*408 FILLER_10_209
*409 FILLER_10_21
*410 FILLER_10_212
*411 FILLER_10_215
*412 FILLER_10_218
*413 FILLER_10_221
*414 FILLER_10_224
*415 FILLER_10_227
*416 FILLER_10_230
*417 FILLER_10_233
*418 FILLER_10_236
*419 FILLER_10_239
*420 FILLER_10_24
*421 FILLER_10_242
*422 FILLER_10_245
*423 FILLER_10_248
*424 FILLER_10_251
*425 FILLER_10_253
*426 FILLER_10_256
*427 FILLER_10_259
*428 FILLER_10_262
*429 FILLER_10_265
*430 FILLER_10_268
*431 FILLER_10_27
*432 FILLER_10_271
*433 FILLER_10_274
*434 FILLER_10_277
*435 FILLER_10_280
*436 FILLER_10_283
*437 FILLER_10_286
*438 FILLER_10_289
*439 FILLER_10_29
*440 FILLER_10_292
*441 FILLER_10_295
*442 FILLER_10_298
*443 FILLER_10_3
*444 FILLER_10_301
*445 FILLER_10_304
*446 FILLER_10_307
*447 FILLER_10_309
*448 FILLER_10_312
*449 FILLER_10_315
*450 FILLER_10_318
*451 FILLER_10_32
*452 FILLER_10_321
*453 FILLER_10_324
*454 FILLER_10_327
*455 FILLER_10_330
*456 FILLER_10_333
*457 FILLER_10_35
*458 FILLER_10_38
*459 FILLER_10_41
*460 FILLER_10_44
*461 FILLER_10_47
*462 FILLER_10_50
*463 FILLER_10_53
*464 FILLER_10_56
*465 FILLER_10_59
*466 FILLER_10_6
*467 FILLER_10_62
*468 FILLER_10_65
*469 FILLER_10_68
*470 FILLER_10_71
*471 FILLER_10_74
*472 FILLER_10_77
*473 FILLER_10_80
*474 FILLER_10_83
*475 FILLER_10_85
*476 FILLER_10_88
*477 FILLER_10_9
*478 FILLER_10_91
*479 FILLER_10_94
*480 FILLER_10_97
*481 FILLER_11_102
*482 FILLER_11_105
*483 FILLER_11_108
*484 FILLER_11_111
*485 FILLER_11_113
*486 FILLER_11_116
*487 FILLER_11_119
*488 FILLER_11_12
*489 FILLER_11_122
*490 FILLER_11_125
*491 FILLER_11_128
*492 FILLER_11_131
*493 FILLER_11_134
*494 FILLER_11_137
*495 FILLER_11_140
*496 FILLER_11_143
*497 FILLER_11_146
*498 FILLER_11_149
*499 FILLER_11_15
*500 FILLER_11_152
*501 FILLER_11_155
*502 FILLER_11_158
*503 FILLER_11_161
*504 FILLER_11_164
*505 FILLER_11_167
*506 FILLER_11_169
*507 FILLER_11_172
*508 FILLER_11_175
*509 FILLER_11_178
*510 FILLER_11_18
*511 FILLER_11_181
*512 FILLER_11_184
*513 FILLER_11_187
*514 FILLER_11_190
*515 FILLER_11_193
*516 FILLER_11_196
*517 FILLER_11_199
*518 FILLER_11_202
*519 FILLER_11_205
*520 FILLER_11_208
*521 FILLER_11_21
*522 FILLER_11_211
*523 FILLER_11_214
*524 FILLER_11_217
*525 FILLER_11_220
*526 FILLER_11_223
*527 FILLER_11_225
*528 FILLER_11_228
*529 FILLER_11_231
*530 FILLER_11_234
*531 FILLER_11_237
*532 FILLER_11_24
*533 FILLER_11_240
*534 FILLER_11_243
*535 FILLER_11_246
*536 FILLER_11_249
*537 FILLER_11_252
*538 FILLER_11_255
*539 FILLER_11_258
*540 FILLER_11_261
*541 FILLER_11_264
*542 FILLER_11_267
*543 FILLER_11_27
*544 FILLER_11_270
*545 FILLER_11_273
*546 FILLER_11_276
*547 FILLER_11_279
*548 FILLER_11_281
*549 FILLER_11_284
*550 FILLER_11_287
*551 FILLER_11_290
*552 FILLER_11_293
*553 FILLER_11_296
*554 FILLER_11_299
*555 FILLER_11_3
*556 FILLER_11_30
*557 FILLER_11_302
*558 FILLER_11_305
*559 FILLER_11_308
*560 FILLER_11_311
*561 FILLER_11_314
*562 FILLER_11_317
*563 FILLER_11_320
*564 FILLER_11_323
*565 FILLER_11_326
*566 FILLER_11_329
*567 FILLER_11_33
*568 FILLER_11_332
*569 FILLER_11_36
*570 FILLER_11_39
*571 FILLER_11_42
*572 FILLER_11_45
*573 FILLER_11_48
*574 FILLER_11_51
*575 FILLER_11_54
*576 FILLER_11_57
*577 FILLER_11_6
*578 FILLER_11_60
*579 FILLER_11_63
*580 FILLER_11_66
*581 FILLER_11_69
*582 FILLER_11_72
*583 FILLER_11_75
*584 FILLER_11_78
*585 FILLER_11_81
*586 FILLER_11_84
*587 FILLER_11_87
*588 FILLER_11_9
*589 FILLER_11_90
*590 FILLER_11_93
*591 FILLER_11_96
*592 FILLER_11_99
*593 FILLER_12_100
*594 FILLER_12_103
*595 FILLER_12_106
*596 FILLER_12_109
*597 FILLER_12_112
*598 FILLER_12_115
*599 FILLER_12_118
*600 FILLER_12_12
*601 FILLER_12_121
*602 FILLER_12_124
*603 FILLER_12_127
*604 FILLER_12_130
*605 FILLER_12_133
*606 FILLER_12_136
*607 FILLER_12_139
*608 FILLER_12_141
*609 FILLER_12_144
*610 FILLER_12_147
*611 FILLER_12_15
*612 FILLER_12_150
*613 FILLER_12_153
*614 FILLER_12_156
*615 FILLER_12_159
*616 FILLER_12_162
*617 FILLER_12_165
*618 FILLER_12_168
*619 FILLER_12_171
*620 FILLER_12_174
*621 FILLER_12_177
*622 FILLER_12_18
*623 FILLER_12_180
*624 FILLER_12_183
*625 FILLER_12_186
*626 FILLER_12_189
*627 FILLER_12_192
*628 FILLER_12_195
*629 FILLER_12_197
*630 FILLER_12_200
*631 FILLER_12_203
*632 FILLER_12_206
*633 FILLER_12_209
*634 FILLER_12_21
*635 FILLER_12_212
*636 FILLER_12_215
*637 FILLER_12_218
*638 FILLER_12_221
*639 FILLER_12_224
*640 FILLER_12_227
*641 FILLER_12_230
*642 FILLER_12_233
*643 FILLER_12_236
*644 FILLER_12_239
*645 FILLER_12_24
*646 FILLER_12_242
*647 FILLER_12_245
*648 FILLER_12_248
*649 FILLER_12_251
*650 FILLER_12_253
*651 FILLER_12_256
*652 FILLER_12_259
*653 FILLER_12_262
*654 FILLER_12_265
*655 FILLER_12_268
*656 FILLER_12_27
*657 FILLER_12_271
*658 FILLER_12_274
*659 FILLER_12_277
*660 FILLER_12_280
*661 FILLER_12_283
*662 FILLER_12_286
*663 FILLER_12_289
*664 FILLER_12_29
*665 FILLER_12_292
*666 FILLER_12_295
*667 FILLER_12_298
*668 FILLER_12_3
*669 FILLER_12_301
*670 FILLER_12_304
*671 FILLER_12_307
*672 FILLER_12_309
*673 FILLER_12_312
*674 FILLER_12_315
*675 FILLER_12_318
*676 FILLER_12_32
*677 FILLER_12_321
*678 FILLER_12_324
*679 FILLER_12_327
*680 FILLER_12_330
*681 FILLER_12_333
*682 FILLER_12_35
*683 FILLER_12_38
*684 FILLER_12_41
*685 FILLER_12_44
*686 FILLER_12_47
*687 FILLER_12_50
*688 FILLER_12_53
*689 FILLER_12_56
*690 FILLER_12_59
*691 FILLER_12_6
*692 FILLER_12_62
*693 FILLER_12_65
*694 FILLER_12_68
*695 FILLER_12_71
*696 FILLER_12_74
*697 FILLER_12_77
*698 FILLER_12_80
*699 FILLER_12_83
*700 FILLER_12_85
*701 FILLER_12_88
*702 FILLER_12_9
*703 FILLER_12_91
*704 FILLER_12_94
*705 FILLER_12_97
*706 FILLER_13_102
*707 FILLER_13_105
*708 FILLER_13_108
*709 FILLER_13_111
*710 FILLER_13_113
*711 FILLER_13_116
*712 FILLER_13_119
*713 FILLER_13_12
*714 FILLER_13_122
*715 FILLER_13_125
*716 FILLER_13_128
*717 FILLER_13_131
*718 FILLER_13_134
*719 FILLER_13_137
*720 FILLER_13_140
*721 FILLER_13_143
*722 FILLER_13_146
*723 FILLER_13_149
*724 FILLER_13_15
*725 FILLER_13_152
*726 FILLER_13_155
*727 FILLER_13_158
*728 FILLER_13_161
*729 FILLER_13_164
*730 FILLER_13_167
*731 FILLER_13_169
*732 FILLER_13_172
*733 FILLER_13_175
*734 FILLER_13_178
*735 FILLER_13_18
*736 FILLER_13_181
*737 FILLER_13_184
*738 FILLER_13_187
*739 FILLER_13_190
*740 FILLER_13_193
*741 FILLER_13_196
*742 FILLER_13_199
*743 FILLER_13_202
*744 FILLER_13_205
*745 FILLER_13_208
*746 FILLER_13_21
*747 FILLER_13_211
*748 FILLER_13_214
*749 FILLER_13_217
*750 FILLER_13_220
*751 FILLER_13_223
*752 FILLER_13_225
*753 FILLER_13_228
*754 FILLER_13_231
*755 FILLER_13_234
*756 FILLER_13_237
*757 FILLER_13_24
*758 FILLER_13_240
*759 FILLER_13_243
*760 FILLER_13_246
*761 FILLER_13_249
*762 FILLER_13_252
*763 FILLER_13_255
*764 FILLER_13_258
*765 FILLER_13_261
*766 FILLER_13_264
*767 FILLER_13_267
*768 FILLER_13_27
*769 FILLER_13_270
*770 FILLER_13_273
*771 FILLER_13_276
*772 FILLER_13_279
*773 FILLER_13_281
*774 FILLER_13_284
*775 FILLER_13_287
*776 FILLER_13_290
*777 FILLER_13_293
*778 FILLER_13_296
*779 FILLER_13_299
*780 FILLER_13_3
*781 FILLER_13_30
*782 FILLER_13_302
*783 FILLER_13_305
*784 FILLER_13_308
*785 FILLER_13_311
*786 FILLER_13_314
*787 FILLER_13_317
*788 FILLER_13_320
*789 FILLER_13_323
*790 FILLER_13_326
*791 FILLER_13_329
*792 FILLER_13_33
*793 FILLER_13_332
*794 FILLER_13_36
*795 FILLER_13_39
*796 FILLER_13_42
*797 FILLER_13_45
*798 FILLER_13_48
*799 FILLER_13_51
*800 FILLER_13_54
*801 FILLER_13_57
*802 FILLER_13_6
*803 FILLER_13_60
*804 FILLER_13_63
*805 FILLER_13_66
*806 FILLER_13_69
*807 FILLER_13_72
*808 FILLER_13_75
*809 FILLER_13_78
*810 FILLER_13_81
*811 FILLER_13_84
*812 FILLER_13_87
*813 FILLER_13_9
*814 FILLER_13_90
*815 FILLER_13_93
*816 FILLER_13_96
*817 FILLER_13_99
*818 FILLER_14_100
*819 FILLER_14_103
*820 FILLER_14_106
*821 FILLER_14_109
*822 FILLER_14_112
*823 FILLER_14_115
*824 FILLER_14_118
*825 FILLER_14_12
*826 FILLER_14_121
*827 FILLER_14_124
*828 FILLER_14_127
*829 FILLER_14_130
*830 FILLER_14_133
*831 FILLER_14_136
*832 FILLER_14_139
*833 FILLER_14_141
*834 FILLER_14_144
*835 FILLER_14_147
*836 FILLER_14_15
*837 FILLER_14_150
*838 FILLER_14_153
*839 FILLER_14_156
*840 FILLER_14_159
*841 FILLER_14_162
*842 FILLER_14_165
*843 FILLER_14_168
*844 FILLER_14_171
*845 FILLER_14_174
*846 FILLER_14_177
*847 FILLER_14_18
*848 FILLER_14_180
*849 FILLER_14_183
*850 FILLER_14_186
*851 FILLER_14_189
*852 FILLER_14_192
*853 FILLER_14_195
*854 FILLER_14_197
*855 FILLER_14_200
*856 FILLER_14_203
*857 FILLER_14_206
*858 FILLER_14_209
*859 FILLER_14_21
*860 FILLER_14_212
*861 FILLER_14_215
*862 FILLER_14_218
*863 FILLER_14_221
*864 FILLER_14_224
*865 FILLER_14_227
*866 FILLER_14_230
*867 FILLER_14_233
*868 FILLER_14_236
*869 FILLER_14_239
*870 FILLER_14_24
*871 FILLER_14_242
*872 FILLER_14_245
*873 FILLER_14_248
*874 FILLER_14_251
*875 FILLER_14_253
*876 FILLER_14_256
*877 FILLER_14_259
*878 FILLER_14_262
*879 FILLER_14_265
*880 FILLER_14_268
*881 FILLER_14_27
*882 FILLER_14_271
*883 FILLER_14_274
*884 FILLER_14_277
*885 FILLER_14_280
*886 FILLER_14_283
*887 FILLER_14_286
*888 FILLER_14_289
*889 FILLER_14_29
*890 FILLER_14_292
*891 FILLER_14_295
*892 FILLER_14_298
*893 FILLER_14_3
*894 FILLER_14_301
*895 FILLER_14_304
*896 FILLER_14_307
*897 FILLER_14_309
*898 FILLER_14_312
*899 FILLER_14_315
*900 FILLER_14_318
*901 FILLER_14_32
*902 FILLER_14_321
*903 FILLER_14_324
*904 FILLER_14_327
*905 FILLER_14_330
*906 FILLER_14_333
*907 FILLER_14_35
*908 FILLER_14_38
*909 FILLER_14_41
*910 FILLER_14_44
*911 FILLER_14_47
*912 FILLER_14_50
*913 FILLER_14_53
*914 FILLER_14_56
*915 FILLER_14_59
*916 FILLER_14_6
*917 FILLER_14_62
*918 FILLER_14_65
*919 FILLER_14_68
*920 FILLER_14_71
*921 FILLER_14_74
*922 FILLER_14_77
*923 FILLER_14_80
*924 FILLER_14_83
*925 FILLER_14_85
*926 FILLER_14_88
*927 FILLER_14_9
*928 FILLER_14_91
*929 FILLER_14_94
*930 FILLER_14_97
*931 FILLER_15_102
*932 FILLER_15_105
*933 FILLER_15_108
*934 FILLER_15_111
*935 FILLER_15_113
*936 FILLER_15_116
*937 FILLER_15_119
*938 FILLER_15_12
*939 FILLER_15_122
*940 FILLER_15_125
*941 FILLER_15_128
*942 FILLER_15_131
*943 FILLER_15_134
*944 FILLER_15_137
*945 FILLER_15_140
*946 FILLER_15_143
*947 FILLER_15_146
*948 FILLER_15_149
*949 FILLER_15_15
*950 FILLER_15_152
*951 FILLER_15_155
*952 FILLER_15_158
*953 FILLER_15_161
*954 FILLER_15_164
*955 FILLER_15_167
*956 FILLER_15_169
*957 FILLER_15_172
*958 FILLER_15_175
*959 FILLER_15_178
*960 FILLER_15_18
*961 FILLER_15_181
*962 FILLER_15_184
*963 FILLER_15_187
*964 FILLER_15_190
*965 FILLER_15_193
*966 FILLER_15_196
*967 FILLER_15_199
*968 FILLER_15_202
*969 FILLER_15_205
*970 FILLER_15_208
*971 FILLER_15_21
*972 FILLER_15_211
*973 FILLER_15_214
*974 FILLER_15_217
*975 FILLER_15_220
*976 FILLER_15_223
*977 FILLER_15_225
*978 FILLER_15_228
*979 FILLER_15_231
*980 FILLER_15_234
*981 FILLER_15_237
*982 FILLER_15_24
*983 FILLER_15_240
*984 FILLER_15_243
*985 FILLER_15_246
*986 FILLER_15_249
*987 FILLER_15_252
*988 FILLER_15_255
*989 FILLER_15_258
*990 FILLER_15_261
*991 FILLER_15_264
*992 FILLER_15_267
*993 FILLER_15_27
*994 FILLER_15_270
*995 FILLER_15_273
*996 FILLER_15_276
*997 FILLER_15_279
*998 FILLER_15_281
*999 FILLER_15_284
*1000 FILLER_15_287
*1001 FILLER_15_290
*1002 FILLER_15_293
*1003 FILLER_15_296
*1004 FILLER_15_299
*1005 FILLER_15_3
*1006 FILLER_15_30
*1007 FILLER_15_302
*1008 FILLER_15_305
*1009 FILLER_15_308
*1010 FILLER_15_311
*1011 FILLER_15_314
*1012 FILLER_15_317
*1013 FILLER_15_320
*1014 FILLER_15_323
*1015 FILLER_15_326
*1016 FILLER_15_329
*1017 FILLER_15_33
*1018 FILLER_15_332
*1019 FILLER_15_36
*1020 FILLER_15_39
*1021 FILLER_15_42
*1022 FILLER_15_45
*1023 FILLER_15_48
*1024 FILLER_15_51
*1025 FILLER_15_54
*1026 FILLER_15_57
*1027 FILLER_15_6
*1028 FILLER_15_60
*1029 FILLER_15_63
*1030 FILLER_15_66
*1031 FILLER_15_69
*1032 FILLER_15_72
*1033 FILLER_15_75
*1034 FILLER_15_78
*1035 FILLER_15_81
*1036 FILLER_15_84
*1037 FILLER_15_87
*1038 FILLER_15_9
*1039 FILLER_15_90
*1040 FILLER_15_93
*1041 FILLER_15_96
*1042 FILLER_15_99
*1043 FILLER_16_100
*1044 FILLER_16_103
*1045 FILLER_16_106
*1046 FILLER_16_109
*1047 FILLER_16_112
*1048 FILLER_16_115
*1049 FILLER_16_118
*1050 FILLER_16_12
*1051 FILLER_16_121
*1052 FILLER_16_124
*1053 FILLER_16_127
*1054 FILLER_16_130
*1055 FILLER_16_133
*1056 FILLER_16_136
*1057 FILLER_16_139
*1058 FILLER_16_141
*1059 FILLER_16_144
*1060 FILLER_16_147
*1061 FILLER_16_15
*1062 FILLER_16_150
*1063 FILLER_16_153
*1064 FILLER_16_156
*1065 FILLER_16_159
*1066 FILLER_16_162
*1067 FILLER_16_165
*1068 FILLER_16_168
*1069 FILLER_16_171
*1070 FILLER_16_174
*1071 FILLER_16_177
*1072 FILLER_16_18
*1073 FILLER_16_180
*1074 FILLER_16_183
*1075 FILLER_16_186
*1076 FILLER_16_189
*1077 FILLER_16_192
*1078 FILLER_16_195
*1079 FILLER_16_197
*1080 FILLER_16_200
*1081 FILLER_16_203
*1082 FILLER_16_206
*1083 FILLER_16_209
*1084 FILLER_16_21
*1085 FILLER_16_212
*1086 FILLER_16_215
*1087 FILLER_16_218
*1088 FILLER_16_221
*1089 FILLER_16_224
*1090 FILLER_16_227
*1091 FILLER_16_230
*1092 FILLER_16_233
*1093 FILLER_16_236
*1094 FILLER_16_239
*1095 FILLER_16_24
*1096 FILLER_16_242
*1097 FILLER_16_245
*1098 FILLER_16_248
*1099 FILLER_16_251
*1100 FILLER_16_253
*1101 FILLER_16_256
*1102 FILLER_16_259
*1103 FILLER_16_262
*1104 FILLER_16_265
*1105 FILLER_16_268
*1106 FILLER_16_27
*1107 FILLER_16_271
*1108 FILLER_16_274
*1109 FILLER_16_277
*1110 FILLER_16_280
*1111 FILLER_16_283
*1112 FILLER_16_286
*1113 FILLER_16_289
*1114 FILLER_16_29
*1115 FILLER_16_292
*1116 FILLER_16_295
*1117 FILLER_16_298
*1118 FILLER_16_3
*1119 FILLER_16_301
*1120 FILLER_16_304
*1121 FILLER_16_307
*1122 FILLER_16_309
*1123 FILLER_16_312
*1124 FILLER_16_315
*1125 FILLER_16_318
*1126 FILLER_16_32
*1127 FILLER_16_321
*1128 FILLER_16_324
*1129 FILLER_16_327
*1130 FILLER_16_330
*1131 FILLER_16_333
*1132 FILLER_16_35
*1133 FILLER_16_38
*1134 FILLER_16_41
*1135 FILLER_16_44
*1136 FILLER_16_47
*1137 FILLER_16_50
*1138 FILLER_16_53
*1139 FILLER_16_56
*1140 FILLER_16_59
*1141 FILLER_16_6
*1142 FILLER_16_62
*1143 FILLER_16_65
*1144 FILLER_16_68
*1145 FILLER_16_71
*1146 FILLER_16_74
*1147 FILLER_16_77
*1148 FILLER_16_80
*1149 FILLER_16_83
*1150 FILLER_16_85
*1151 FILLER_16_88
*1152 FILLER_16_9
*1153 FILLER_16_91
*1154 FILLER_16_94
*1155 FILLER_16_97
*1156 FILLER_17_102
*1157 FILLER_17_105
*1158 FILLER_17_108
*1159 FILLER_17_111
*1160 FILLER_17_113
*1161 FILLER_17_116
*1162 FILLER_17_119
*1163 FILLER_17_12
*1164 FILLER_17_122
*1165 FILLER_17_125
*1166 FILLER_17_128
*1167 FILLER_17_131
*1168 FILLER_17_134
*1169 FILLER_17_137
*1170 FILLER_17_140
*1171 FILLER_17_143
*1172 FILLER_17_146
*1173 FILLER_17_149
*1174 FILLER_17_15
*1175 FILLER_17_152
*1176 FILLER_17_155
*1177 FILLER_17_158
*1178 FILLER_17_161
*1179 FILLER_17_164
*1180 FILLER_17_167
*1181 FILLER_17_169
*1182 FILLER_17_172
*1183 FILLER_17_175
*1184 FILLER_17_178
*1185 FILLER_17_18
*1186 FILLER_17_181
*1187 FILLER_17_184
*1188 FILLER_17_187
*1189 FILLER_17_190
*1190 FILLER_17_193
*1191 FILLER_17_196
*1192 FILLER_17_199
*1193 FILLER_17_202
*1194 FILLER_17_205
*1195 FILLER_17_208
*1196 FILLER_17_21
*1197 FILLER_17_211
*1198 FILLER_17_214
*1199 FILLER_17_217
*1200 FILLER_17_220
*1201 FILLER_17_223
*1202 FILLER_17_225
*1203 FILLER_17_228
*1204 FILLER_17_231
*1205 FILLER_17_234
*1206 FILLER_17_237
*1207 FILLER_17_24
*1208 FILLER_17_240
*1209 FILLER_17_243
*1210 FILLER_17_246
*1211 FILLER_17_249
*1212 FILLER_17_252
*1213 FILLER_17_255
*1214 FILLER_17_258
*1215 FILLER_17_261
*1216 FILLER_17_264
*1217 FILLER_17_267
*1218 FILLER_17_27
*1219 FILLER_17_270
*1220 FILLER_17_273
*1221 FILLER_17_276
*1222 FILLER_17_279
*1223 FILLER_17_281
*1224 FILLER_17_284
*1225 FILLER_17_287
*1226 FILLER_17_290
*1227 FILLER_17_293
*1228 FILLER_17_296
*1229 FILLER_17_299
*1230 FILLER_17_3
*1231 FILLER_17_30
*1232 FILLER_17_302
*1233 FILLER_17_305
*1234 FILLER_17_308
*1235 FILLER_17_311
*1236 FILLER_17_314
*1237 FILLER_17_317
*1238 FILLER_17_320
*1239 FILLER_17_323
*1240 FILLER_17_326
*1241 FILLER_17_329
*1242 FILLER_17_33
*1243 FILLER_17_332
*1244 FILLER_17_36
*1245 FILLER_17_39
*1246 FILLER_17_42
*1247 FILLER_17_45
*1248 FILLER_17_48
*1249 FILLER_17_51
*1250 FILLER_17_54
*1251 FILLER_17_57
*1252 FILLER_17_6
*1253 FILLER_17_60
*1254 FILLER_17_63
*1255 FILLER_17_66
*1256 FILLER_17_69
*1257 FILLER_17_72
*1258 FILLER_17_75
*1259 FILLER_17_78
*1260 FILLER_17_81
*1261 FILLER_17_84
*1262 FILLER_17_87
*1263 FILLER_17_9
*1264 FILLER_17_90
*1265 FILLER_17_93
*1266 FILLER_17_96
*1267 FILLER_17_99
*1268 FILLER_18_100
*1269 FILLER_18_103
*1270 FILLER_18_106
*1271 FILLER_18_109
*1272 FILLER_18_112
*1273 FILLER_18_115
*1274 FILLER_18_118
*1275 FILLER_18_12
*1276 FILLER_18_121
*1277 FILLER_18_124
*1278 FILLER_18_127
*1279 FILLER_18_130
*1280 FILLER_18_133
*1281 FILLER_18_136
*1282 FILLER_18_139
*1283 FILLER_18_141
*1284 FILLER_18_144
*1285 FILLER_18_147
*1286 FILLER_18_15
*1287 FILLER_18_150
*1288 FILLER_18_153
*1289 FILLER_18_156
*1290 FILLER_18_159
*1291 FILLER_18_162
*1292 FILLER_18_165
*1293 FILLER_18_168
*1294 FILLER_18_171
*1295 FILLER_18_174
*1296 FILLER_18_177
*1297 FILLER_18_18
*1298 FILLER_18_180
*1299 FILLER_18_183
*1300 FILLER_18_186
*1301 FILLER_18_189
*1302 FILLER_18_192
*1303 FILLER_18_195
*1304 FILLER_18_197
*1305 FILLER_18_200
*1306 FILLER_18_203
*1307 FILLER_18_206
*1308 FILLER_18_209
*1309 FILLER_18_21
*1310 FILLER_18_212
*1311 FILLER_18_215
*1312 FILLER_18_218
*1313 FILLER_18_221
*1314 FILLER_18_224
*1315 FILLER_18_227
*1316 FILLER_18_230
*1317 FILLER_18_233
*1318 FILLER_18_236
*1319 FILLER_18_239
*1320 FILLER_18_24
*1321 FILLER_18_242
*1322 FILLER_18_245
*1323 FILLER_18_248
*1324 FILLER_18_251
*1325 FILLER_18_253
*1326 FILLER_18_256
*1327 FILLER_18_259
*1328 FILLER_18_262
*1329 FILLER_18_265
*1330 FILLER_18_268
*1331 FILLER_18_27
*1332 FILLER_18_29
*1333 FILLER_18_292
*1334 FILLER_18_295
*1335 FILLER_18_298
*1336 FILLER_18_3
*1337 FILLER_18_301
*1338 FILLER_18_304
*1339 FILLER_18_307
*1340 FILLER_18_309
*1341 FILLER_18_312
*1342 FILLER_18_315
*1343 FILLER_18_318
*1344 FILLER_18_32
*1345 FILLER_18_321
*1346 FILLER_18_324
*1347 FILLER_18_327
*1348 FILLER_18_330
*1349 FILLER_18_333
*1350 FILLER_18_35
*1351 FILLER_18_38
*1352 FILLER_18_41
*1353 FILLER_18_44
*1354 FILLER_18_47
*1355 FILLER_18_50
*1356 FILLER_18_53
*1357 FILLER_18_56
*1358 FILLER_18_59
*1359 FILLER_18_6
*1360 FILLER_18_62
*1361 FILLER_18_65
*1362 FILLER_18_68
*1363 FILLER_18_71
*1364 FILLER_18_74
*1365 FILLER_18_77
*1366 FILLER_18_80
*1367 FILLER_18_83
*1368 FILLER_18_85
*1369 FILLER_18_88
*1370 FILLER_18_9
*1371 FILLER_18_91
*1372 FILLER_18_94
*1373 FILLER_18_97
*1374 FILLER_19_102
*1375 FILLER_19_105
*1376 FILLER_19_108
*1377 FILLER_19_111
*1378 FILLER_19_113
*1379 FILLER_19_116
*1380 FILLER_19_119
*1381 FILLER_19_12
*1382 FILLER_19_122
*1383 FILLER_19_125
*1384 FILLER_19_128
*1385 FILLER_19_131
*1386 FILLER_19_134
*1387 FILLER_19_137
*1388 FILLER_19_140
*1389 FILLER_19_143
*1390 FILLER_19_146
*1391 FILLER_19_149
*1392 FILLER_19_15
*1393 FILLER_19_152
*1394 FILLER_19_155
*1395 FILLER_19_158
*1396 FILLER_19_161
*1397 FILLER_19_164
*1398 FILLER_19_167
*1399 FILLER_19_169
*1400 FILLER_19_172
*1401 FILLER_19_175
*1402 FILLER_19_178
*1403 FILLER_19_18
*1404 FILLER_19_181
*1405 FILLER_19_184
*1406 FILLER_19_187
*1407 FILLER_19_190
*1408 FILLER_19_201
*1409 FILLER_19_204
*1410 FILLER_19_207
*1411 FILLER_19_21
*1412 FILLER_19_210
*1413 FILLER_19_213
*1414 FILLER_19_216
*1415 FILLER_19_219
*1416 FILLER_19_222
*1417 FILLER_19_225
*1418 FILLER_19_228
*1419 FILLER_19_231
*1420 FILLER_19_234
*1421 FILLER_19_237
*1422 FILLER_19_24
*1423 FILLER_19_240
*1424 FILLER_19_243
*1425 FILLER_19_246
*1426 FILLER_19_249
*1427 FILLER_19_252
*1428 FILLER_19_255
*1429 FILLER_19_258
*1430 FILLER_19_268
*1431 FILLER_19_27
*1432 FILLER_19_271
*1433 FILLER_19_274
*1434 FILLER_19_289
*1435 FILLER_19_292
*1436 FILLER_19_295
*1437 FILLER_19_298
*1438 FILLER_19_3
*1439 FILLER_19_30
*1440 FILLER_19_301
*1441 FILLER_19_304
*1442 FILLER_19_307
*1443 FILLER_19_310
*1444 FILLER_19_313
*1445 FILLER_19_316
*1446 FILLER_19_319
*1447 FILLER_19_322
*1448 FILLER_19_325
*1449 FILLER_19_328
*1450 FILLER_19_33
*1451 FILLER_19_331
*1452 FILLER_19_334
*1453 FILLER_19_36
*1454 FILLER_19_39
*1455 FILLER_19_42
*1456 FILLER_19_45
*1457 FILLER_19_48
*1458 FILLER_19_51
*1459 FILLER_19_54
*1460 FILLER_19_57
*1461 FILLER_19_6
*1462 FILLER_19_60
*1463 FILLER_19_63
*1464 FILLER_19_66
*1465 FILLER_19_69
*1466 FILLER_19_72
*1467 FILLER_19_75
*1468 FILLER_19_78
*1469 FILLER_19_81
*1470 FILLER_19_84
*1471 FILLER_19_87
*1472 FILLER_19_9
*1473 FILLER_19_90
*1474 FILLER_19_93
*1475 FILLER_19_96
*1476 FILLER_19_99
*1477 FILLER_1_102
*1478 FILLER_1_105
*1479 FILLER_1_108
*1480 FILLER_1_111
*1481 FILLER_1_113
*1482 FILLER_1_116
*1483 FILLER_1_119
*1484 FILLER_1_12
*1485 FILLER_1_122
*1486 FILLER_1_125
*1487 FILLER_1_128
*1488 FILLER_1_131
*1489 FILLER_1_134
*1490 FILLER_1_137
*1491 FILLER_1_140
*1492 FILLER_1_143
*1493 FILLER_1_146
*1494 FILLER_1_149
*1495 FILLER_1_15
*1496 FILLER_1_152
*1497 FILLER_1_155
*1498 FILLER_1_158
*1499 FILLER_1_161
*1500 FILLER_1_164
*1501 FILLER_1_167
*1502 FILLER_1_169
*1503 FILLER_1_172
*1504 FILLER_1_175
*1505 FILLER_1_178
*1506 FILLER_1_18
*1507 FILLER_1_181
*1508 FILLER_1_184
*1509 FILLER_1_187
*1510 FILLER_1_190
*1511 FILLER_1_193
*1512 FILLER_1_196
*1513 FILLER_1_199
*1514 FILLER_1_202
*1515 FILLER_1_205
*1516 FILLER_1_208
*1517 FILLER_1_21
*1518 FILLER_1_211
*1519 FILLER_1_214
*1520 FILLER_1_217
*1521 FILLER_1_220
*1522 FILLER_1_223
*1523 FILLER_1_225
*1524 FILLER_1_228
*1525 FILLER_1_231
*1526 FILLER_1_234
*1527 FILLER_1_237
*1528 FILLER_1_24
*1529 FILLER_1_240
*1530 FILLER_1_243
*1531 FILLER_1_246
*1532 FILLER_1_249
*1533 FILLER_1_252
*1534 FILLER_1_255
*1535 FILLER_1_258
*1536 FILLER_1_261
*1537 FILLER_1_264
*1538 FILLER_1_267
*1539 FILLER_1_27
*1540 FILLER_1_270
*1541 FILLER_1_273
*1542 FILLER_1_276
*1543 FILLER_1_279
*1544 FILLER_1_281
*1545 FILLER_1_284
*1546 FILLER_1_287
*1547 FILLER_1_290
*1548 FILLER_1_293
*1549 FILLER_1_296
*1550 FILLER_1_299
*1551 FILLER_1_3
*1552 FILLER_1_30
*1553 FILLER_1_302
*1554 FILLER_1_305
*1555 FILLER_1_308
*1556 FILLER_1_311
*1557 FILLER_1_314
*1558 FILLER_1_317
*1559 FILLER_1_320
*1560 FILLER_1_323
*1561 FILLER_1_326
*1562 FILLER_1_329
*1563 FILLER_1_33
*1564 FILLER_1_332
*1565 FILLER_1_36
*1566 FILLER_1_39
*1567 FILLER_1_42
*1568 FILLER_1_45
*1569 FILLER_1_48
*1570 FILLER_1_51
*1571 FILLER_1_54
*1572 FILLER_1_57
*1573 FILLER_1_6
*1574 FILLER_1_60
*1575 FILLER_1_63
*1576 FILLER_1_66
*1577 FILLER_1_69
*1578 FILLER_1_72
*1579 FILLER_1_75
*1580 FILLER_1_78
*1581 FILLER_1_81
*1582 FILLER_1_84
*1583 FILLER_1_87
*1584 FILLER_1_9
*1585 FILLER_1_90
*1586 FILLER_1_93
*1587 FILLER_1_96
*1588 FILLER_1_99
*1589 FILLER_20_100
*1590 FILLER_20_103
*1591 FILLER_20_106
*1592 FILLER_20_109
*1593 FILLER_20_112
*1594 FILLER_20_115
*1595 FILLER_20_118
*1596 FILLER_20_12
*1597 FILLER_20_121
*1598 FILLER_20_124
*1599 FILLER_20_127
*1600 FILLER_20_130
*1601 FILLER_20_133
*1602 FILLER_20_136
*1603 FILLER_20_139
*1604 FILLER_20_141
*1605 FILLER_20_144
*1606 FILLER_20_147
*1607 FILLER_20_15
*1608 FILLER_20_150
*1609 FILLER_20_153
*1610 FILLER_20_156
*1611 FILLER_20_159
*1612 FILLER_20_162
*1613 FILLER_20_165
*1614 FILLER_20_168
*1615 FILLER_20_171
*1616 FILLER_20_174
*1617 FILLER_20_177
*1618 FILLER_20_18
*1619 FILLER_20_183
*1620 FILLER_20_186
*1621 FILLER_20_189
*1622 FILLER_20_200
*1623 FILLER_20_203
*1624 FILLER_20_206
*1625 FILLER_20_21
*1626 FILLER_20_215
*1627 FILLER_20_218
*1628 FILLER_20_223
*1629 FILLER_20_226
*1630 FILLER_20_229
*1631 FILLER_20_232
*1632 FILLER_20_235
*1633 FILLER_20_238
*1634 FILLER_20_24
*1635 FILLER_20_248
*1636 FILLER_20_251
*1637 FILLER_20_253
*1638 FILLER_20_256
*1639 FILLER_20_259
*1640 FILLER_20_262
*1641 FILLER_20_265
*1642 FILLER_20_268
*1643 FILLER_20_27
*1644 FILLER_20_271
*1645 FILLER_20_274
*1646 FILLER_20_277
*1647 FILLER_20_280
*1648 FILLER_20_283
*1649 FILLER_20_286
*1650 FILLER_20_289
*1651 FILLER_20_29
*1652 FILLER_20_292
*1653 FILLER_20_295
*1654 FILLER_20_298
*1655 FILLER_20_3
*1656 FILLER_20_301
*1657 FILLER_20_304
*1658 FILLER_20_309
*1659 FILLER_20_312
*1660 FILLER_20_315
*1661 FILLER_20_318
*1662 FILLER_20_32
*1663 FILLER_20_321
*1664 FILLER_20_324
*1665 FILLER_20_327
*1666 FILLER_20_330
*1667 FILLER_20_333
*1668 FILLER_20_35
*1669 FILLER_20_38
*1670 FILLER_20_41
*1671 FILLER_20_44
*1672 FILLER_20_47
*1673 FILLER_20_50
*1674 FILLER_20_53
*1675 FILLER_20_56
*1676 FILLER_20_59
*1677 FILLER_20_6
*1678 FILLER_20_62
*1679 FILLER_20_65
*1680 FILLER_20_68
*1681 FILLER_20_71
*1682 FILLER_20_74
*1683 FILLER_20_77
*1684 FILLER_20_80
*1685 FILLER_20_83
*1686 FILLER_20_85
*1687 FILLER_20_88
*1688 FILLER_20_9
*1689 FILLER_20_91
*1690 FILLER_20_94
*1691 FILLER_20_97
*1692 FILLER_21_102
*1693 FILLER_21_105
*1694 FILLER_21_110
*1695 FILLER_21_113
*1696 FILLER_21_116
*1697 FILLER_21_119
*1698 FILLER_21_12
*1699 FILLER_21_122
*1700 FILLER_21_125
*1701 FILLER_21_128
*1702 FILLER_21_131
*1703 FILLER_21_15
*1704 FILLER_21_163
*1705 FILLER_21_166
*1706 FILLER_21_169
*1707 FILLER_21_172
*1708 FILLER_21_175
*1709 FILLER_21_178
*1710 FILLER_21_18
*1711 FILLER_21_181
*1712 FILLER_21_184
*1713 FILLER_21_187
*1714 FILLER_21_197
*1715 FILLER_21_204
*1716 FILLER_21_207
*1717 FILLER_21_21
*1718 FILLER_21_210
*1719 FILLER_21_213
*1720 FILLER_21_228
*1721 FILLER_21_231
*1722 FILLER_21_235
*1723 FILLER_21_238
*1724 FILLER_21_24
*1725 FILLER_21_241
*1726 FILLER_21_244
*1727 FILLER_21_247
*1728 FILLER_21_250
*1729 FILLER_21_253
*1730 FILLER_21_256
*1731 FILLER_21_259
*1732 FILLER_21_262
*1733 FILLER_21_265
*1734 FILLER_21_268
*1735 FILLER_21_27
*1736 FILLER_21_271
*1737 FILLER_21_276
*1738 FILLER_21_279
*1739 FILLER_21_281
*1740 FILLER_21_291
*1741 FILLER_21_294
*1742 FILLER_21_297
*1743 FILLER_21_3
*1744 FILLER_21_30
*1745 FILLER_21_33
*1746 FILLER_21_332
*1747 FILLER_21_36
*1748 FILLER_21_39
*1749 FILLER_21_42
*1750 FILLER_21_45
*1751 FILLER_21_48
*1752 FILLER_21_51
*1753 FILLER_21_54
*1754 FILLER_21_57
*1755 FILLER_21_6
*1756 FILLER_21_60
*1757 FILLER_21_63
*1758 FILLER_21_66
*1759 FILLER_21_69
*1760 FILLER_21_72
*1761 FILLER_21_75
*1762 FILLER_21_78
*1763 FILLER_21_81
*1764 FILLER_21_84
*1765 FILLER_21_87
*1766 FILLER_21_9
*1767 FILLER_21_90
*1768 FILLER_21_93
*1769 FILLER_21_96
*1770 FILLER_21_99
*1771 FILLER_22_100
*1772 FILLER_22_118
*1773 FILLER_22_12
*1774 FILLER_22_122
*1775 FILLER_22_125
*1776 FILLER_22_128
*1777 FILLER_22_131
*1778 FILLER_22_134
*1779 FILLER_22_137
*1780 FILLER_22_141
*1781 FILLER_22_144
*1782 FILLER_22_147
*1783 FILLER_22_15
*1784 FILLER_22_157
*1785 FILLER_22_160
*1786 FILLER_22_163
*1787 FILLER_22_166
*1788 FILLER_22_169
*1789 FILLER_22_172
*1790 FILLER_22_175
*1791 FILLER_22_178
*1792 FILLER_22_18
*1793 FILLER_22_181
*1794 FILLER_22_194
*1795 FILLER_22_197
*1796 FILLER_22_200
*1797 FILLER_22_203
*1798 FILLER_22_206
*1799 FILLER_22_209
*1800 FILLER_22_21
*1801 FILLER_22_212
*1802 FILLER_22_215
*1803 FILLER_22_223
*1804 FILLER_22_226
*1805 FILLER_22_229
*1806 FILLER_22_232
*1807 FILLER_22_235
*1808 FILLER_22_238
*1809 FILLER_22_24
*1810 FILLER_22_241
*1811 FILLER_22_244
*1812 FILLER_22_247
*1813 FILLER_22_250
*1814 FILLER_22_253
*1815 FILLER_22_256
*1816 FILLER_22_259
*1817 FILLER_22_262
*1818 FILLER_22_265
*1819 FILLER_22_268
*1820 FILLER_22_27
*1821 FILLER_22_29
*1822 FILLER_22_294
*1823 FILLER_22_297
*1824 FILLER_22_3
*1825 FILLER_22_300
*1826 FILLER_22_306
*1827 FILLER_22_309
*1828 FILLER_22_312
*1829 FILLER_22_32
*1830 FILLER_22_326
*1831 FILLER_22_329
*1832 FILLER_22_332
*1833 FILLER_22_35
*1834 FILLER_22_38
*1835 FILLER_22_41
*1836 FILLER_22_44
*1837 FILLER_22_47
*1838 FILLER_22_50
*1839 FILLER_22_53
*1840 FILLER_22_56
*1841 FILLER_22_59
*1842 FILLER_22_6
*1843 FILLER_22_80
*1844 FILLER_22_83
*1845 FILLER_22_9
*1846 FILLER_22_94
*1847 FILLER_22_97
*1848 FILLER_23_101
*1849 FILLER_23_107
*1850 FILLER_23_111
*1851 FILLER_23_113
*1852 FILLER_23_12
*1853 FILLER_23_121
*1854 FILLER_23_124
*1855 FILLER_23_127
*1856 FILLER_23_130
*1857 FILLER_23_133
*1858 FILLER_23_136
*1859 FILLER_23_139
*1860 FILLER_23_142
*1861 FILLER_23_145
*1862 FILLER_23_148
*1863 FILLER_23_15
*1864 FILLER_23_151
*1865 FILLER_23_154
*1866 FILLER_23_157
*1867 FILLER_23_160
*1868 FILLER_23_163
*1869 FILLER_23_166
*1870 FILLER_23_169
*1871 FILLER_23_172
*1872 FILLER_23_18
*1873 FILLER_23_181
*1874 FILLER_23_184
*1875 FILLER_23_187
*1876 FILLER_23_190
*1877 FILLER_23_193
*1878 FILLER_23_196
*1879 FILLER_23_199
*1880 FILLER_23_202
*1881 FILLER_23_205
*1882 FILLER_23_208
*1883 FILLER_23_21
*1884 FILLER_23_211
*1885 FILLER_23_214
*1886 FILLER_23_217
*1887 FILLER_23_220
*1888 FILLER_23_223
*1889 FILLER_23_225
*1890 FILLER_23_231
*1891 FILLER_23_234
*1892 FILLER_23_237
*1893 FILLER_23_24
*1894 FILLER_23_240
*1895 FILLER_23_243
*1896 FILLER_23_246
*1897 FILLER_23_249
*1898 FILLER_23_252
*1899 FILLER_23_27
*1900 FILLER_23_276
*1901 FILLER_23_279
*1902 FILLER_23_281
*1903 FILLER_23_284
*1904 FILLER_23_287
*1905 FILLER_23_3
*1906 FILLER_23_30
*1907 FILLER_23_309
*1908 FILLER_23_312
*1909 FILLER_23_315
*1910 FILLER_23_318
*1911 FILLER_23_321
*1912 FILLER_23_324
*1913 FILLER_23_327
*1914 FILLER_23_330
*1915 FILLER_23_333
*1916 FILLER_23_46
*1917 FILLER_23_49
*1918 FILLER_23_52
*1919 FILLER_23_55
*1920 FILLER_23_57
*1921 FILLER_23_6
*1922 FILLER_23_60
*1923 FILLER_23_63
*1924 FILLER_23_66
*1925 FILLER_23_69
*1926 FILLER_23_72
*1927 FILLER_23_78
*1928 FILLER_23_81
*1929 FILLER_23_86
*1930 FILLER_23_89
*1931 FILLER_23_9
*1932 FILLER_23_92
*1933 FILLER_23_95
*1934 FILLER_23_98
*1935 FILLER_24_100
*1936 FILLER_24_103
*1937 FILLER_24_106
*1938 FILLER_24_109
*1939 FILLER_24_112
*1940 FILLER_24_115
*1941 FILLER_24_118
*1942 FILLER_24_12
*1943 FILLER_24_121
*1944 FILLER_24_124
*1945 FILLER_24_127
*1946 FILLER_24_130
*1947 FILLER_24_133
*1948 FILLER_24_136
*1949 FILLER_24_139
*1950 FILLER_24_141
*1951 FILLER_24_144
*1952 FILLER_24_147
*1953 FILLER_24_15
*1954 FILLER_24_150
*1955 FILLER_24_153
*1956 FILLER_24_156
*1957 FILLER_24_159
*1958 FILLER_24_162
*1959 FILLER_24_165
*1960 FILLER_24_168
*1961 FILLER_24_171
*1962 FILLER_24_174
*1963 FILLER_24_177
*1964 FILLER_24_18
*1965 FILLER_24_180
*1966 FILLER_24_183
*1967 FILLER_24_186
*1968 FILLER_24_203
*1969 FILLER_24_206
*1970 FILLER_24_209
*1971 FILLER_24_21
*1972 FILLER_24_212
*1973 FILLER_24_215
*1974 FILLER_24_218
*1975 FILLER_24_221
*1976 FILLER_24_224
*1977 FILLER_24_234
*1978 FILLER_24_237
*1979 FILLER_24_24
*1980 FILLER_24_240
*1981 FILLER_24_243
*1982 FILLER_24_246
*1983 FILLER_24_249
*1984 FILLER_24_253
*1985 FILLER_24_256
*1986 FILLER_24_259
*1987 FILLER_24_262
*1988 FILLER_24_265
*1989 FILLER_24_268
*1990 FILLER_24_27
*1991 FILLER_24_271
*1992 FILLER_24_274
*1993 FILLER_24_277
*1994 FILLER_24_280
*1995 FILLER_24_283
*1996 FILLER_24_286
*1997 FILLER_24_29
*1998 FILLER_24_295
*1999 FILLER_24_298
*2000 FILLER_24_3
*2001 FILLER_24_301
*2002 FILLER_24_307
*2003 FILLER_24_309
*2004 FILLER_24_312
*2005 FILLER_24_315
*2006 FILLER_24_318
*2007 FILLER_24_32
*2008 FILLER_24_321
*2009 FILLER_24_324
*2010 FILLER_24_327
*2011 FILLER_24_330
*2012 FILLER_24_333
*2013 FILLER_24_35
*2014 FILLER_24_38
*2015 FILLER_24_41
*2016 FILLER_24_44
*2017 FILLER_24_47
*2018 FILLER_24_50
*2019 FILLER_24_53
*2020 FILLER_24_56
*2021 FILLER_24_59
*2022 FILLER_24_6
*2023 FILLER_24_62
*2024 FILLER_24_65
*2025 FILLER_24_68
*2026 FILLER_24_71
*2027 FILLER_24_74
*2028 FILLER_24_77
*2029 FILLER_24_80
*2030 FILLER_24_83
*2031 FILLER_24_85
*2032 FILLER_24_88
*2033 FILLER_24_9
*2034 FILLER_24_91
*2035 FILLER_24_94
*2036 FILLER_24_97
*2037 FILLER_25_106
*2038 FILLER_25_109
*2039 FILLER_25_113
*2040 FILLER_25_116
*2041 FILLER_25_119
*2042 FILLER_25_12
*2043 FILLER_25_122
*2044 FILLER_25_125
*2045 FILLER_25_128
*2046 FILLER_25_131
*2047 FILLER_25_134
*2048 FILLER_25_144
*2049 FILLER_25_147
*2050 FILLER_25_15
*2051 FILLER_25_155
*2052 FILLER_25_158
*2053 FILLER_25_161
*2054 FILLER_25_164
*2055 FILLER_25_167
*2056 FILLER_25_169
*2057 FILLER_25_172
*2058 FILLER_25_175
*2059 FILLER_25_18
*2060 FILLER_25_182
*2061 FILLER_25_185
*2062 FILLER_25_190
*2063 FILLER_25_193
*2064 FILLER_25_201
*2065 FILLER_25_204
*2066 FILLER_25_207
*2067 FILLER_25_21
*2068 FILLER_25_210
*2069 FILLER_25_213
*2070 FILLER_25_216
*2071 FILLER_25_219
*2072 FILLER_25_225
*2073 FILLER_25_240
*2074 FILLER_25_243
*2075 FILLER_25_246
*2076 FILLER_25_249
*2077 FILLER_25_252
*2078 FILLER_25_255
*2079 FILLER_25_258
*2080 FILLER_25_261
*2081 FILLER_25_264
*2082 FILLER_25_267
*2083 FILLER_25_270
*2084 FILLER_25_273
*2085 FILLER_25_276
*2086 FILLER_25_279
*2087 FILLER_25_281
*2088 FILLER_25_284
*2089 FILLER_25_287
*2090 FILLER_25_29
*2091 FILLER_25_290
*2092 FILLER_25_293
*2093 FILLER_25_296
*2094 FILLER_25_3
*2095 FILLER_25_301
*2096 FILLER_25_304
*2097 FILLER_25_32
*2098 FILLER_25_328
*2099 FILLER_25_331
*2100 FILLER_25_334
*2101 FILLER_25_35
*2102 FILLER_25_38
*2103 FILLER_25_41
*2104 FILLER_25_44
*2105 FILLER_25_47
*2106 FILLER_25_50
*2107 FILLER_25_53
*2108 FILLER_25_57
*2109 FILLER_25_6
*2110 FILLER_25_63
*2111 FILLER_25_66
*2112 FILLER_25_69
*2113 FILLER_25_72
*2114 FILLER_25_75
*2115 FILLER_25_78
*2116 FILLER_25_81
*2117 FILLER_25_84
*2118 FILLER_25_87
*2119 FILLER_25_9
*2120 FILLER_25_90
*2121 FILLER_25_93
*2122 FILLER_25_96
*2123 FILLER_25_99
*2124 FILLER_26_106
*2125 FILLER_26_110
*2126 FILLER_26_118
*2127 FILLER_26_12
*2128 FILLER_26_121
*2129 FILLER_26_124
*2130 FILLER_26_15
*2131 FILLER_26_151
*2132 FILLER_26_154
*2133 FILLER_26_163
*2134 FILLER_26_166
*2135 FILLER_26_169
*2136 FILLER_26_172
*2137 FILLER_26_175
*2138 FILLER_26_178
*2139 FILLER_26_18
*2140 FILLER_26_181
*2141 FILLER_26_184
*2142 FILLER_26_187
*2143 FILLER_26_190
*2144 FILLER_26_193
*2145 FILLER_26_197
*2146 FILLER_26_200
*2147 FILLER_26_203
*2148 FILLER_26_206
*2149 FILLER_26_209
*2150 FILLER_26_212
*2151 FILLER_26_215
*2152 FILLER_26_218
*2153 FILLER_26_229
*2154 FILLER_26_235
*2155 FILLER_26_238
*2156 FILLER_26_241
*2157 FILLER_26_244
*2158 FILLER_26_247
*2159 FILLER_26_250
*2160 FILLER_26_253
*2161 FILLER_26_256
*2162 FILLER_26_259
*2163 FILLER_26_262
*2164 FILLER_26_265
*2165 FILLER_26_268
*2166 FILLER_26_278
*2167 FILLER_26_281
*2168 FILLER_26_284
*2169 FILLER_26_287
*2170 FILLER_26_290
*2171 FILLER_26_293
*2172 FILLER_26_296
*2173 FILLER_26_299
*2174 FILLER_26_3
*2175 FILLER_26_312
*2176 FILLER_26_318
*2177 FILLER_26_32
*2178 FILLER_26_321
*2179 FILLER_26_324
*2180 FILLER_26_327
*2181 FILLER_26_330
*2182 FILLER_26_333
*2183 FILLER_26_35
*2184 FILLER_26_38
*2185 FILLER_26_41
*2186 FILLER_26_44
*2187 FILLER_26_47
*2188 FILLER_26_50
*2189 FILLER_26_53
*2190 FILLER_26_56
*2191 FILLER_26_6
*2192 FILLER_26_77
*2193 FILLER_26_80
*2194 FILLER_26_83
*2195 FILLER_26_85
*2196 FILLER_26_88
*2197 FILLER_26_9
*2198 FILLER_26_91
*2199 FILLER_26_94
*2200 FILLER_26_97
*2201 FILLER_27_100
*2202 FILLER_27_103
*2203 FILLER_27_107
*2204 FILLER_27_110
*2205 FILLER_27_113
*2206 FILLER_27_116
*2207 FILLER_27_119
*2208 FILLER_27_12
*2209 FILLER_27_122
*2210 FILLER_27_125
*2211 FILLER_27_128
*2212 FILLER_27_131
*2213 FILLER_27_134
*2214 FILLER_27_142
*2215 FILLER_27_145
*2216 FILLER_27_148
*2217 FILLER_27_15
*2218 FILLER_27_151
*2219 FILLER_27_154
*2220 FILLER_27_157
*2221 FILLER_27_163
*2222 FILLER_27_166
*2223 FILLER_27_169
*2224 FILLER_27_172
*2225 FILLER_27_175
*2226 FILLER_27_178
*2227 FILLER_27_18
*2228 FILLER_27_181
*2229 FILLER_27_184
*2230 FILLER_27_200
*2231 FILLER_27_203
*2232 FILLER_27_206
*2233 FILLER_27_209
*2234 FILLER_27_21
*2235 FILLER_27_212
*2236 FILLER_27_217
*2237 FILLER_27_220
*2238 FILLER_27_223
*2239 FILLER_27_232
*2240 FILLER_27_235
*2241 FILLER_27_238
*2242 FILLER_27_241
*2243 FILLER_27_244
*2244 FILLER_27_247
*2245 FILLER_27_250
*2246 FILLER_27_253
*2247 FILLER_27_256
*2248 FILLER_27_281
*2249 FILLER_27_284
*2250 FILLER_27_287
*2251 FILLER_27_290
*2252 FILLER_27_293
*2253 FILLER_27_296
*2254 FILLER_27_299
*2255 FILLER_27_3
*2256 FILLER_27_302
*2257 FILLER_27_308
*2258 FILLER_27_311
*2259 FILLER_27_314
*2260 FILLER_27_317
*2261 FILLER_27_320
*2262 FILLER_27_323
*2263 FILLER_27_326
*2264 FILLER_27_329
*2265 FILLER_27_332
*2266 FILLER_27_37
*2267 FILLER_27_40
*2268 FILLER_27_43
*2269 FILLER_27_46
*2270 FILLER_27_49
*2271 FILLER_27_52
*2272 FILLER_27_55
*2273 FILLER_27_57
*2274 FILLER_27_6
*2275 FILLER_27_67
*2276 FILLER_27_70
*2277 FILLER_27_79
*2278 FILLER_27_82
*2279 FILLER_27_85
*2280 FILLER_27_88
*2281 FILLER_27_9
*2282 FILLER_27_91
*2283 FILLER_27_94
*2284 FILLER_27_97
*2285 FILLER_28_100
*2286 FILLER_28_109
*2287 FILLER_28_112
*2288 FILLER_28_115
*2289 FILLER_28_118
*2290 FILLER_28_12
*2291 FILLER_28_121
*2292 FILLER_28_124
*2293 FILLER_28_127
*2294 FILLER_28_130
*2295 FILLER_28_133
*2296 FILLER_28_136
*2297 FILLER_28_139
*2298 FILLER_28_141
*2299 FILLER_28_144
*2300 FILLER_28_147
*2301 FILLER_28_15
*2302 FILLER_28_150
*2303 FILLER_28_155
*2304 FILLER_28_158
*2305 FILLER_28_161
*2306 FILLER_28_164
*2307 FILLER_28_167
*2308 FILLER_28_170
*2309 FILLER_28_173
*2310 FILLER_28_176
*2311 FILLER_28_179
*2312 FILLER_28_18
*2313 FILLER_28_189
*2314 FILLER_28_192
*2315 FILLER_28_195
*2316 FILLER_28_197
*2317 FILLER_28_207
*2318 FILLER_28_21
*2319 FILLER_28_210
*2320 FILLER_28_213
*2321 FILLER_28_216
*2322 FILLER_28_219
*2323 FILLER_28_222
*2324 FILLER_28_225
*2325 FILLER_28_228
*2326 FILLER_28_231
*2327 FILLER_28_234
*2328 FILLER_28_237
*2329 FILLER_28_24
*2330 FILLER_28_240
*2331 FILLER_28_243
*2332 FILLER_28_246
*2333 FILLER_28_249
*2334 FILLER_28_253
*2335 FILLER_28_256
*2336 FILLER_28_259
*2337 FILLER_28_262
*2338 FILLER_28_27
*2339 FILLER_28_278
*2340 FILLER_28_281
*2341 FILLER_28_284
*2342 FILLER_28_287
*2343 FILLER_28_29
*2344 FILLER_28_3
*2345 FILLER_28_309
*2346 FILLER_28_312
*2347 FILLER_28_315
*2348 FILLER_28_318
*2349 FILLER_28_32
*2350 FILLER_28_321
*2351 FILLER_28_324
*2352 FILLER_28_327
*2353 FILLER_28_330
*2354 FILLER_28_333
*2355 FILLER_28_35
*2356 FILLER_28_38
*2357 FILLER_28_41
*2358 FILLER_28_44
*2359 FILLER_28_47
*2360 FILLER_28_50
*2361 FILLER_28_53
*2362 FILLER_28_56
*2363 FILLER_28_59
*2364 FILLER_28_6
*2365 FILLER_28_65
*2366 FILLER_28_68
*2367 FILLER_28_72
*2368 FILLER_28_75
*2369 FILLER_28_78
*2370 FILLER_28_81
*2371 FILLER_28_85
*2372 FILLER_28_88
*2373 FILLER_28_9
*2374 FILLER_28_91
*2375 FILLER_28_94
*2376 FILLER_28_97
*2377 FILLER_29_102
*2378 FILLER_29_105
*2379 FILLER_29_108
*2380 FILLER_29_111
*2381 FILLER_29_113
*2382 FILLER_29_116
*2383 FILLER_29_119
*2384 FILLER_29_12
*2385 FILLER_29_122
*2386 FILLER_29_125
*2387 FILLER_29_128
*2388 FILLER_29_131
*2389 FILLER_29_134
*2390 FILLER_29_137
*2391 FILLER_29_140
*2392 FILLER_29_143
*2393 FILLER_29_146
*2394 FILLER_29_149
*2395 FILLER_29_15
*2396 FILLER_29_157
*2397 FILLER_29_160
*2398 FILLER_29_163
*2399 FILLER_29_166
*2400 FILLER_29_169
*2401 FILLER_29_172
*2402 FILLER_29_175
*2403 FILLER_29_178
*2404 FILLER_29_18
*2405 FILLER_29_181
*2406 FILLER_29_191
*2407 FILLER_29_194
*2408 FILLER_29_197
*2409 FILLER_29_200
*2410 FILLER_29_203
*2411 FILLER_29_206
*2412 FILLER_29_209
*2413 FILLER_29_212
*2414 FILLER_29_215
*2415 FILLER_29_218
*2416 FILLER_29_221
*2417 FILLER_29_225
*2418 FILLER_29_228
*2419 FILLER_29_236
*2420 FILLER_29_239
*2421 FILLER_29_242
*2422 FILLER_29_245
*2423 FILLER_29_248
*2424 FILLER_29_251
*2425 FILLER_29_254
*2426 FILLER_29_257
*2427 FILLER_29_260
*2428 FILLER_29_263
*2429 FILLER_29_266
*2430 FILLER_29_269
*2431 FILLER_29_272
*2432 FILLER_29_275
*2433 FILLER_29_278
*2434 FILLER_29_281
*2435 FILLER_29_284
*2436 FILLER_29_287
*2437 FILLER_29_290
*2438 FILLER_29_293
*2439 FILLER_29_296
*2440 FILLER_29_299
*2441 FILLER_29_3
*2442 FILLER_29_302
*2443 FILLER_29_305
*2444 FILLER_29_308
*2445 FILLER_29_313
*2446 FILLER_29_316
*2447 FILLER_29_319
*2448 FILLER_29_322
*2449 FILLER_29_325
*2450 FILLER_29_328
*2451 FILLER_29_33
*2452 FILLER_29_331
*2453 FILLER_29_334
*2454 FILLER_29_36
*2455 FILLER_29_43
*2456 FILLER_29_46
*2457 FILLER_29_49
*2458 FILLER_29_52
*2459 FILLER_29_55
*2460 FILLER_29_6
*2461 FILLER_29_71
*2462 FILLER_29_74
*2463 FILLER_29_77
*2464 FILLER_29_80
*2465 FILLER_29_83
*2466 FILLER_29_86
*2467 FILLER_29_89
*2468 FILLER_29_9
*2469 FILLER_29_92
*2470 FILLER_29_99
*2471 FILLER_2_100
*2472 FILLER_2_103
*2473 FILLER_2_106
*2474 FILLER_2_109
*2475 FILLER_2_112
*2476 FILLER_2_115
*2477 FILLER_2_118
*2478 FILLER_2_12
*2479 FILLER_2_121
*2480 FILLER_2_124
*2481 FILLER_2_127
*2482 FILLER_2_130
*2483 FILLER_2_133
*2484 FILLER_2_136
*2485 FILLER_2_139
*2486 FILLER_2_141
*2487 FILLER_2_144
*2488 FILLER_2_147
*2489 FILLER_2_15
*2490 FILLER_2_150
*2491 FILLER_2_153
*2492 FILLER_2_156
*2493 FILLER_2_159
*2494 FILLER_2_162
*2495 FILLER_2_165
*2496 FILLER_2_168
*2497 FILLER_2_171
*2498 FILLER_2_174
*2499 FILLER_2_177
*2500 FILLER_2_18
*2501 FILLER_2_180
*2502 FILLER_2_183
*2503 FILLER_2_186
*2504 FILLER_2_189
*2505 FILLER_2_192
*2506 FILLER_2_195
*2507 FILLER_2_197
*2508 FILLER_2_200
*2509 FILLER_2_203
*2510 FILLER_2_206
*2511 FILLER_2_209
*2512 FILLER_2_21
*2513 FILLER_2_212
*2514 FILLER_2_215
*2515 FILLER_2_218
*2516 FILLER_2_221
*2517 FILLER_2_224
*2518 FILLER_2_227
*2519 FILLER_2_230
*2520 FILLER_2_233
*2521 FILLER_2_236
*2522 FILLER_2_239
*2523 FILLER_2_24
*2524 FILLER_2_242
*2525 FILLER_2_245
*2526 FILLER_2_248
*2527 FILLER_2_251
*2528 FILLER_2_253
*2529 FILLER_2_256
*2530 FILLER_2_259
*2531 FILLER_2_262
*2532 FILLER_2_265
*2533 FILLER_2_268
*2534 FILLER_2_27
*2535 FILLER_2_271
*2536 FILLER_2_274
*2537 FILLER_2_277
*2538 FILLER_2_280
*2539 FILLER_2_283
*2540 FILLER_2_286
*2541 FILLER_2_289
*2542 FILLER_2_29
*2543 FILLER_2_292
*2544 FILLER_2_295
*2545 FILLER_2_298
*2546 FILLER_2_3
*2547 FILLER_2_301
*2548 FILLER_2_304
*2549 FILLER_2_307
*2550 FILLER_2_309
*2551 FILLER_2_312
*2552 FILLER_2_315
*2553 FILLER_2_318
*2554 FILLER_2_32
*2555 FILLER_2_321
*2556 FILLER_2_324
*2557 FILLER_2_327
*2558 FILLER_2_330
*2559 FILLER_2_333
*2560 FILLER_2_35
*2561 FILLER_2_38
*2562 FILLER_2_41
*2563 FILLER_2_44
*2564 FILLER_2_47
*2565 FILLER_2_50
*2566 FILLER_2_53
*2567 FILLER_2_56
*2568 FILLER_2_59
*2569 FILLER_2_6
*2570 FILLER_2_62
*2571 FILLER_2_65
*2572 FILLER_2_68
*2573 FILLER_2_71
*2574 FILLER_2_74
*2575 FILLER_2_77
*2576 FILLER_2_80
*2577 FILLER_2_83
*2578 FILLER_2_85
*2579 FILLER_2_88
*2580 FILLER_2_9
*2581 FILLER_2_91
*2582 FILLER_2_94
*2583 FILLER_2_97
*2584 FILLER_30_105
*2585 FILLER_30_114
*2586 FILLER_30_117
*2587 FILLER_30_12
*2588 FILLER_30_120
*2589 FILLER_30_123
*2590 FILLER_30_126
*2591 FILLER_30_129
*2592 FILLER_30_132
*2593 FILLER_30_141
*2594 FILLER_30_144
*2595 FILLER_30_147
*2596 FILLER_30_15
*2597 FILLER_30_159
*2598 FILLER_30_162
*2599 FILLER_30_165
*2600 FILLER_30_168
*2601 FILLER_30_171
*2602 FILLER_30_174
*2603 FILLER_30_177
*2604 FILLER_30_18
*2605 FILLER_30_180
*2606 FILLER_30_183
*2607 FILLER_30_186
*2608 FILLER_30_189
*2609 FILLER_30_192
*2610 FILLER_30_195
*2611 FILLER_30_197
*2612 FILLER_30_200
*2613 FILLER_30_203
*2614 FILLER_30_206
*2615 FILLER_30_209
*2616 FILLER_30_21
*2617 FILLER_30_212
*2618 FILLER_30_225
*2619 FILLER_30_228
*2620 FILLER_30_231
*2621 FILLER_30_234
*2622 FILLER_30_237
*2623 FILLER_30_24
*2624 FILLER_30_253
*2625 FILLER_30_256
*2626 FILLER_30_259
*2627 FILLER_30_262
*2628 FILLER_30_265
*2629 FILLER_30_268
*2630 FILLER_30_27
*2631 FILLER_30_271
*2632 FILLER_30_274
*2633 FILLER_30_277
*2634 FILLER_30_280
*2635 FILLER_30_283
*2636 FILLER_30_286
*2637 FILLER_30_289
*2638 FILLER_30_292
*2639 FILLER_30_295
*2640 FILLER_30_298
*2641 FILLER_30_3
*2642 FILLER_30_306
*2643 FILLER_30_332
*2644 FILLER_30_34
*2645 FILLER_30_37
*2646 FILLER_30_40
*2647 FILLER_30_43
*2648 FILLER_30_46
*2649 FILLER_30_49
*2650 FILLER_30_52
*2651 FILLER_30_55
*2652 FILLER_30_58
*2653 FILLER_30_6
*2654 FILLER_30_72
*2655 FILLER_30_75
*2656 FILLER_30_78
*2657 FILLER_30_81
*2658 FILLER_30_85
*2659 FILLER_30_88
*2660 FILLER_30_9
*2661 FILLER_30_91
*2662 FILLER_30_94
*2663 FILLER_30_97
*2664 FILLER_31_103
*2665 FILLER_31_12
*2666 FILLER_31_120
*2667 FILLER_31_123
*2668 FILLER_31_126
*2669 FILLER_31_129
*2670 FILLER_31_132
*2671 FILLER_31_135
*2672 FILLER_31_138
*2673 FILLER_31_141
*2674 FILLER_31_144
*2675 FILLER_31_15
*2676 FILLER_31_161
*2677 FILLER_31_164
*2678 FILLER_31_167
*2679 FILLER_31_169
*2680 FILLER_31_172
*2681 FILLER_31_18
*2682 FILLER_31_183
*2683 FILLER_31_186
*2684 FILLER_31_189
*2685 FILLER_31_192
*2686 FILLER_31_195
*2687 FILLER_31_198
*2688 FILLER_31_201
*2689 FILLER_31_204
*2690 FILLER_31_207
*2691 FILLER_31_21
*2692 FILLER_31_210
*2693 FILLER_31_221
*2694 FILLER_31_225
*2695 FILLER_31_230
*2696 FILLER_31_233
*2697 FILLER_31_236
*2698 FILLER_31_239
*2699 FILLER_31_24
*2700 FILLER_31_242
*2701 FILLER_31_248
*2702 FILLER_31_251
*2703 FILLER_31_254
*2704 FILLER_31_257
*2705 FILLER_31_260
*2706 FILLER_31_263
*2707 FILLER_31_266
*2708 FILLER_31_275
*2709 FILLER_31_278
*2710 FILLER_31_281
*2711 FILLER_31_284
*2712 FILLER_31_287
*2713 FILLER_31_290
*2714 FILLER_31_3
*2715 FILLER_31_324
*2716 FILLER_31_327
*2717 FILLER_31_33
*2718 FILLER_31_330
*2719 FILLER_31_333
*2720 FILLER_31_36
*2721 FILLER_31_39
*2722 FILLER_31_42
*2723 FILLER_31_45
*2724 FILLER_31_48
*2725 FILLER_31_51
*2726 FILLER_31_54
*2727 FILLER_31_57
*2728 FILLER_31_6
*2729 FILLER_31_60
*2730 FILLER_31_75
*2731 FILLER_31_78
*2732 FILLER_31_81
*2733 FILLER_31_84
*2734 FILLER_31_87
*2735 FILLER_31_9
*2736 FILLER_31_90
*2737 FILLER_31_93
*2738 FILLER_31_96
*2739 FILLER_32_104
*2740 FILLER_32_107
*2741 FILLER_32_110
*2742 FILLER_32_113
*2743 FILLER_32_116
*2744 FILLER_32_119
*2745 FILLER_32_12
*2746 FILLER_32_122
*2747 FILLER_32_125
*2748 FILLER_32_128
*2749 FILLER_32_131
*2750 FILLER_32_134
*2751 FILLER_32_137
*2752 FILLER_32_141
*2753 FILLER_32_149
*2754 FILLER_32_15
*2755 FILLER_32_152
*2756 FILLER_32_155
*2757 FILLER_32_158
*2758 FILLER_32_161
*2759 FILLER_32_164
*2760 FILLER_32_167
*2761 FILLER_32_170
*2762 FILLER_32_173
*2763 FILLER_32_18
*2764 FILLER_32_181
*2765 FILLER_32_184
*2766 FILLER_32_187
*2767 FILLER_32_197
*2768 FILLER_32_200
*2769 FILLER_32_203
*2770 FILLER_32_206
*2771 FILLER_32_209
*2772 FILLER_32_21
*2773 FILLER_32_212
*2774 FILLER_32_215
*2775 FILLER_32_223
*2776 FILLER_32_226
*2777 FILLER_32_229
*2778 FILLER_32_232
*2779 FILLER_32_235
*2780 FILLER_32_238
*2781 FILLER_32_24
*2782 FILLER_32_241
*2783 FILLER_32_244
*2784 FILLER_32_247
*2785 FILLER_32_250
*2786 FILLER_32_253
*2787 FILLER_32_256
*2788 FILLER_32_259
*2789 FILLER_32_262
*2790 FILLER_32_27
*2791 FILLER_32_286
*2792 FILLER_32_289
*2793 FILLER_32_29
*2794 FILLER_32_292
*2795 FILLER_32_295
*2796 FILLER_32_3
*2797 FILLER_32_307
*2798 FILLER_32_309
*2799 FILLER_32_312
*2800 FILLER_32_315
*2801 FILLER_32_318
*2802 FILLER_32_321
*2803 FILLER_32_324
*2804 FILLER_32_327
*2805 FILLER_32_330
*2806 FILLER_32_333
*2807 FILLER_32_34
*2808 FILLER_32_37
*2809 FILLER_32_40
*2810 FILLER_32_43
*2811 FILLER_32_46
*2812 FILLER_32_49
*2813 FILLER_32_52
*2814 FILLER_32_55
*2815 FILLER_32_58
*2816 FILLER_32_6
*2817 FILLER_32_61
*2818 FILLER_32_64
*2819 FILLER_32_67
*2820 FILLER_32_70
*2821 FILLER_32_73
*2822 FILLER_32_76
*2823 FILLER_32_79
*2824 FILLER_32_82
*2825 FILLER_32_85
*2826 FILLER_32_88
*2827 FILLER_32_9
*2828 FILLER_32_91
*2829 FILLER_32_94
*2830 FILLER_33_102
*2831 FILLER_33_110
*2832 FILLER_33_113
*2833 FILLER_33_116
*2834 FILLER_33_119
*2835 FILLER_33_12
*2836 FILLER_33_122
*2837 FILLER_33_125
*2838 FILLER_33_128
*2839 FILLER_33_131
*2840 FILLER_33_134
*2841 FILLER_33_137
*2842 FILLER_33_140
*2843 FILLER_33_15
*2844 FILLER_33_150
*2845 FILLER_33_153
*2846 FILLER_33_156
*2847 FILLER_33_159
*2848 FILLER_33_162
*2849 FILLER_33_165
*2850 FILLER_33_169
*2851 FILLER_33_172
*2852 FILLER_33_175
*2853 FILLER_33_178
*2854 FILLER_33_18
*2855 FILLER_33_187
*2856 FILLER_33_190
*2857 FILLER_33_197
*2858 FILLER_33_200
*2859 FILLER_33_21
*2860 FILLER_33_211
*2861 FILLER_33_214
*2862 FILLER_33_221
*2863 FILLER_33_225
*2864 FILLER_33_228
*2865 FILLER_33_231
*2866 FILLER_33_234
*2867 FILLER_33_237
*2868 FILLER_33_24
*2869 FILLER_33_240
*2870 FILLER_33_243
*2871 FILLER_33_246
*2872 FILLER_33_249
*2873 FILLER_33_252
*2874 FILLER_33_255
*2875 FILLER_33_258
*2876 FILLER_33_261
*2877 FILLER_33_264
*2878 FILLER_33_267
*2879 FILLER_33_27
*2880 FILLER_33_270
*2881 FILLER_33_278
*2882 FILLER_33_281
*2883 FILLER_33_284
*2884 FILLER_33_287
*2885 FILLER_33_290
*2886 FILLER_33_293
*2887 FILLER_33_296
*2888 FILLER_33_3
*2889 FILLER_33_325
*2890 FILLER_33_328
*2891 FILLER_33_331
*2892 FILLER_33_334
*2893 FILLER_33_35
*2894 FILLER_33_38
*2895 FILLER_33_41
*2896 FILLER_33_44
*2897 FILLER_33_47
*2898 FILLER_33_50
*2899 FILLER_33_53
*2900 FILLER_33_57
*2901 FILLER_33_6
*2902 FILLER_33_78
*2903 FILLER_33_81
*2904 FILLER_33_84
*2905 FILLER_33_87
*2906 FILLER_33_9
*2907 FILLER_33_90
*2908 FILLER_33_93
*2909 FILLER_33_96
*2910 FILLER_33_99
*2911 FILLER_34_100
*2912 FILLER_34_103
*2913 FILLER_34_106
*2914 FILLER_34_115
*2915 FILLER_34_118
*2916 FILLER_34_12
*2917 FILLER_34_121
*2918 FILLER_34_124
*2919 FILLER_34_127
*2920 FILLER_34_130
*2921 FILLER_34_133
*2922 FILLER_34_136
*2923 FILLER_34_139
*2924 FILLER_34_149
*2925 FILLER_34_15
*2926 FILLER_34_152
*2927 FILLER_34_155
*2928 FILLER_34_158
*2929 FILLER_34_161
*2930 FILLER_34_164
*2931 FILLER_34_167
*2932 FILLER_34_170
*2933 FILLER_34_173
*2934 FILLER_34_176
*2935 FILLER_34_179
*2936 FILLER_34_18
*2937 FILLER_34_182
*2938 FILLER_34_185
*2939 FILLER_34_188
*2940 FILLER_34_191
*2941 FILLER_34_194
*2942 FILLER_34_197
*2943 FILLER_34_200
*2944 FILLER_34_203
*2945 FILLER_34_206
*2946 FILLER_34_209
*2947 FILLER_34_212
*2948 FILLER_34_215
*2949 FILLER_34_218
*2950 FILLER_34_221
*2951 FILLER_34_224
*2952 FILLER_34_227
*2953 FILLER_34_230
*2954 FILLER_34_233
*2955 FILLER_34_236
*2956 FILLER_34_244
*2957 FILLER_34_247
*2958 FILLER_34_250
*2959 FILLER_34_253
*2960 FILLER_34_256
*2961 FILLER_34_259
*2962 FILLER_34_262
*2963 FILLER_34_265
*2964 FILLER_34_268
*2965 FILLER_34_271
*2966 FILLER_34_274
*2967 FILLER_34_277
*2968 FILLER_34_280
*2969 FILLER_34_283
*2970 FILLER_34_286
*2971 FILLER_34_289
*2972 FILLER_34_29
*2973 FILLER_34_292
*2974 FILLER_34_295
*2975 FILLER_34_298
*2976 FILLER_34_3
*2977 FILLER_34_301
*2978 FILLER_34_304
*2979 FILLER_34_317
*2980 FILLER_34_32
*2981 FILLER_34_320
*2982 FILLER_34_323
*2983 FILLER_34_326
*2984 FILLER_34_329
*2985 FILLER_34_332
*2986 FILLER_34_35
*2987 FILLER_34_38
*2988 FILLER_34_41
*2989 FILLER_34_44
*2990 FILLER_34_47
*2991 FILLER_34_50
*2992 FILLER_34_53
*2993 FILLER_34_56
*2994 FILLER_34_59
*2995 FILLER_34_6
*2996 FILLER_34_62
*2997 FILLER_34_65
*2998 FILLER_34_68
*2999 FILLER_34_71
*3000 FILLER_34_74
*3001 FILLER_34_77
*3002 FILLER_34_80
*3003 FILLER_34_83
*3004 FILLER_34_85
*3005 FILLER_34_88
*3006 FILLER_34_9
*3007 FILLER_34_91
*3008 FILLER_34_94
*3009 FILLER_34_97
*3010 FILLER_35_109
*3011 FILLER_35_113
*3012 FILLER_35_116
*3013 FILLER_35_119
*3014 FILLER_35_12
*3015 FILLER_35_122
*3016 FILLER_35_125
*3017 FILLER_35_128
*3018 FILLER_35_131
*3019 FILLER_35_134
*3020 FILLER_35_137
*3021 FILLER_35_140
*3022 FILLER_35_144
*3023 FILLER_35_147
*3024 FILLER_35_15
*3025 FILLER_35_150
*3026 FILLER_35_153
*3027 FILLER_35_156
*3028 FILLER_35_159
*3029 FILLER_35_162
*3030 FILLER_35_165
*3031 FILLER_35_169
*3032 FILLER_35_172
*3033 FILLER_35_177
*3034 FILLER_35_18
*3035 FILLER_35_180
*3036 FILLER_35_183
*3037 FILLER_35_186
*3038 FILLER_35_189
*3039 FILLER_35_192
*3040 FILLER_35_195
*3041 FILLER_35_198
*3042 FILLER_35_201
*3043 FILLER_35_204
*3044 FILLER_35_207
*3045 FILLER_35_21
*3046 FILLER_35_210
*3047 FILLER_35_213
*3048 FILLER_35_216
*3049 FILLER_35_219
*3050 FILLER_35_222
*3051 FILLER_35_225
*3052 FILLER_35_228
*3053 FILLER_35_231
*3054 FILLER_35_24
*3055 FILLER_35_244
*3056 FILLER_35_247
*3057 FILLER_35_250
*3058 FILLER_35_253
*3059 FILLER_35_256
*3060 FILLER_35_259
*3061 FILLER_35_262
*3062 FILLER_35_265
*3063 FILLER_35_268
*3064 FILLER_35_27
*3065 FILLER_35_271
*3066 FILLER_35_274
*3067 FILLER_35_277
*3068 FILLER_35_281
*3069 FILLER_35_284
*3070 FILLER_35_287
*3071 FILLER_35_290
*3072 FILLER_35_293
*3073 FILLER_35_296
*3074 FILLER_35_299
*3075 FILLER_35_3
*3076 FILLER_35_30
*3077 FILLER_35_302
*3078 FILLER_35_305
*3079 FILLER_35_308
*3080 FILLER_35_311
*3081 FILLER_35_314
*3082 FILLER_35_317
*3083 FILLER_35_320
*3084 FILLER_35_323
*3085 FILLER_35_326
*3086 FILLER_35_329
*3087 FILLER_35_33
*3088 FILLER_35_332
*3089 FILLER_35_36
*3090 FILLER_35_39
*3091 FILLER_35_42
*3092 FILLER_35_45
*3093 FILLER_35_48
*3094 FILLER_35_51
*3095 FILLER_35_54
*3096 FILLER_35_57
*3097 FILLER_35_6
*3098 FILLER_35_60
*3099 FILLER_35_63
*3100 FILLER_35_66
*3101 FILLER_35_69
*3102 FILLER_35_72
*3103 FILLER_35_75
*3104 FILLER_35_84
*3105 FILLER_35_87
*3106 FILLER_35_9
*3107 FILLER_35_90
*3108 FILLER_35_93
*3109 FILLER_35_96
*3110 FILLER_35_99
*3111 FILLER_36_101
*3112 FILLER_36_106
*3113 FILLER_36_109
*3114 FILLER_36_112
*3115 FILLER_36_115
*3116 FILLER_36_118
*3117 FILLER_36_12
*3118 FILLER_36_121
*3119 FILLER_36_124
*3120 FILLER_36_127
*3121 FILLER_36_130
*3122 FILLER_36_133
*3123 FILLER_36_139
*3124 FILLER_36_141
*3125 FILLER_36_144
*3126 FILLER_36_147
*3127 FILLER_36_15
*3128 FILLER_36_150
*3129 FILLER_36_153
*3130 FILLER_36_156
*3131 FILLER_36_159
*3132 FILLER_36_169
*3133 FILLER_36_172
*3134 FILLER_36_175
*3135 FILLER_36_18
*3136 FILLER_36_184
*3137 FILLER_36_187
*3138 FILLER_36_190
*3139 FILLER_36_193
*3140 FILLER_36_204
*3141 FILLER_36_207
*3142 FILLER_36_21
*3143 FILLER_36_210
*3144 FILLER_36_213
*3145 FILLER_36_216
*3146 FILLER_36_219
*3147 FILLER_36_222
*3148 FILLER_36_225
*3149 FILLER_36_228
*3150 FILLER_36_231
*3151 FILLER_36_24
*3152 FILLER_36_240
*3153 FILLER_36_243
*3154 FILLER_36_246
*3155 FILLER_36_249
*3156 FILLER_36_260
*3157 FILLER_36_27
*3158 FILLER_36_283
*3159 FILLER_36_286
*3160 FILLER_36_289
*3161 FILLER_36_29
*3162 FILLER_36_3
*3163 FILLER_36_304
*3164 FILLER_36_307
*3165 FILLER_36_309
*3166 FILLER_36_314
*3167 FILLER_36_317
*3168 FILLER_36_32
*3169 FILLER_36_320
*3170 FILLER_36_323
*3171 FILLER_36_326
*3172 FILLER_36_329
*3173 FILLER_36_332
*3174 FILLER_36_35
*3175 FILLER_36_38
*3176 FILLER_36_41
*3177 FILLER_36_44
*3178 FILLER_36_47
*3179 FILLER_36_50
*3180 FILLER_36_6
*3181 FILLER_36_60
*3182 FILLER_36_63
*3183 FILLER_36_66
*3184 FILLER_36_69
*3185 FILLER_36_72
*3186 FILLER_36_75
*3187 FILLER_36_78
*3188 FILLER_36_81
*3189 FILLER_36_85
*3190 FILLER_36_88
*3191 FILLER_36_9
*3192 FILLER_36_91
*3193 FILLER_37_101
*3194 FILLER_37_104
*3195 FILLER_37_107
*3196 FILLER_37_110
*3197 FILLER_37_113
*3198 FILLER_37_116
*3199 FILLER_37_119
*3200 FILLER_37_12
*3201 FILLER_37_122
*3202 FILLER_37_125
*3203 FILLER_37_128
*3204 FILLER_37_131
*3205 FILLER_37_139
*3206 FILLER_37_142
*3207 FILLER_37_145
*3208 FILLER_37_148
*3209 FILLER_37_15
*3210 FILLER_37_151
*3211 FILLER_37_154
*3212 FILLER_37_157
*3213 FILLER_37_160
*3214 FILLER_37_163
*3215 FILLER_37_166
*3216 FILLER_37_169
*3217 FILLER_37_172
*3218 FILLER_37_175
*3219 FILLER_37_178
*3220 FILLER_37_18
*3221 FILLER_37_181
*3222 FILLER_37_184
*3223 FILLER_37_187
*3224 FILLER_37_190
*3225 FILLER_37_193
*3226 FILLER_37_196
*3227 FILLER_37_199
*3228 FILLER_37_202
*3229 FILLER_37_205
*3230 FILLER_37_208
*3231 FILLER_37_21
*3232 FILLER_37_211
*3233 FILLER_37_214
*3234 FILLER_37_217
*3235 FILLER_37_220
*3236 FILLER_37_223
*3237 FILLER_37_225
*3238 FILLER_37_228
*3239 FILLER_37_231
*3240 FILLER_37_234
*3241 FILLER_37_24
*3242 FILLER_37_248
*3243 FILLER_37_251
*3244 FILLER_37_254
*3245 FILLER_37_27
*3246 FILLER_37_275
*3247 FILLER_37_278
*3248 FILLER_37_281
*3249 FILLER_37_284
*3250 FILLER_37_287
*3251 FILLER_37_290
*3252 FILLER_37_293
*3253 FILLER_37_296
*3254 FILLER_37_299
*3255 FILLER_37_3
*3256 FILLER_37_30
*3257 FILLER_37_302
*3258 FILLER_37_327
*3259 FILLER_37_33
*3260 FILLER_37_330
*3261 FILLER_37_333
*3262 FILLER_37_36
*3263 FILLER_37_39
*3264 FILLER_37_42
*3265 FILLER_37_45
*3266 FILLER_37_48
*3267 FILLER_37_51
*3268 FILLER_37_54
*3269 FILLER_37_57
*3270 FILLER_37_6
*3271 FILLER_37_60
*3272 FILLER_37_63
*3273 FILLER_37_66
*3274 FILLER_37_69
*3275 FILLER_37_80
*3276 FILLER_37_83
*3277 FILLER_37_86
*3278 FILLER_37_89
*3279 FILLER_37_9
*3280 FILLER_37_92
*3281 FILLER_37_95
*3282 FILLER_37_98
*3283 FILLER_38_100
*3284 FILLER_38_106
*3285 FILLER_38_113
*3286 FILLER_38_118
*3287 FILLER_38_12
*3288 FILLER_38_124
*3289 FILLER_38_138
*3290 FILLER_38_144
*3291 FILLER_38_148
*3292 FILLER_38_15
*3293 FILLER_38_154
*3294 FILLER_38_160
*3295 FILLER_38_166
*3296 FILLER_38_172
*3297 FILLER_38_178
*3298 FILLER_38_18
*3299 FILLER_38_184
*3300 FILLER_38_190
*3301 FILLER_38_197
*3302 FILLER_38_202
*3303 FILLER_38_205
*3304 FILLER_38_208
*3305 FILLER_38_21
*3306 FILLER_38_211
*3307 FILLER_38_214
*3308 FILLER_38_217
*3309 FILLER_38_220
*3310 FILLER_38_223
*3311 FILLER_38_225
*3312 FILLER_38_228
*3313 FILLER_38_231
*3314 FILLER_38_234
*3315 FILLER_38_237
*3316 FILLER_38_24
*3317 FILLER_38_240
*3318 FILLER_38_243
*3319 FILLER_38_246
*3320 FILLER_38_249
*3321 FILLER_38_256
*3322 FILLER_38_262
*3323 FILLER_38_268
*3324 FILLER_38_27
*3325 FILLER_38_274
*3326 FILLER_38_281
*3327 FILLER_38_286
*3328 FILLER_38_29
*3329 FILLER_38_292
*3330 FILLER_38_298
*3331 FILLER_38_3
*3332 FILLER_38_304
*3333 FILLER_38_307
*3334 FILLER_38_309
*3335 FILLER_38_312
*3336 FILLER_38_315
*3337 FILLER_38_318
*3338 FILLER_38_32
*3339 FILLER_38_321
*3340 FILLER_38_324
*3341 FILLER_38_327
*3342 FILLER_38_330
*3343 FILLER_38_333
*3344 FILLER_38_35
*3345 FILLER_38_38
*3346 FILLER_38_41
*3347 FILLER_38_44
*3348 FILLER_38_47
*3349 FILLER_38_50
*3350 FILLER_38_53
*3351 FILLER_38_57
*3352 FILLER_38_6
*3353 FILLER_38_60
*3354 FILLER_38_64
*3355 FILLER_38_70
*3356 FILLER_38_76
*3357 FILLER_38_82
*3358 FILLER_38_88
*3359 FILLER_38_9
*3360 FILLER_38_94
*3361 FILLER_3_102
*3362 FILLER_3_105
*3363 FILLER_3_108
*3364 FILLER_3_111
*3365 FILLER_3_113
*3366 FILLER_3_116
*3367 FILLER_3_119
*3368 FILLER_3_12
*3369 FILLER_3_122
*3370 FILLER_3_125
*3371 FILLER_3_128
*3372 FILLER_3_131
*3373 FILLER_3_134
*3374 FILLER_3_137
*3375 FILLER_3_140
*3376 FILLER_3_143
*3377 FILLER_3_146
*3378 FILLER_3_149
*3379 FILLER_3_15
*3380 FILLER_3_152
*3381 FILLER_3_155
*3382 FILLER_3_158
*3383 FILLER_3_161
*3384 FILLER_3_164
*3385 FILLER_3_167
*3386 FILLER_3_169
*3387 FILLER_3_172
*3388 FILLER_3_175
*3389 FILLER_3_178
*3390 FILLER_3_18
*3391 FILLER_3_181
*3392 FILLER_3_184
*3393 FILLER_3_187
*3394 FILLER_3_190
*3395 FILLER_3_193
*3396 FILLER_3_196
*3397 FILLER_3_199
*3398 FILLER_3_202
*3399 FILLER_3_205
*3400 FILLER_3_208
*3401 FILLER_3_21
*3402 FILLER_3_211
*3403 FILLER_3_214
*3404 FILLER_3_217
*3405 FILLER_3_220
*3406 FILLER_3_223
*3407 FILLER_3_225
*3408 FILLER_3_228
*3409 FILLER_3_231
*3410 FILLER_3_234
*3411 FILLER_3_237
*3412 FILLER_3_24
*3413 FILLER_3_240
*3414 FILLER_3_243
*3415 FILLER_3_246
*3416 FILLER_3_249
*3417 FILLER_3_252
*3418 FILLER_3_255
*3419 FILLER_3_258
*3420 FILLER_3_261
*3421 FILLER_3_264
*3422 FILLER_3_267
*3423 FILLER_3_27
*3424 FILLER_3_270
*3425 FILLER_3_273
*3426 FILLER_3_276
*3427 FILLER_3_279
*3428 FILLER_3_281
*3429 FILLER_3_284
*3430 FILLER_3_287
*3431 FILLER_3_290
*3432 FILLER_3_293
*3433 FILLER_3_296
*3434 FILLER_3_299
*3435 FILLER_3_3
*3436 FILLER_3_30
*3437 FILLER_3_302
*3438 FILLER_3_305
*3439 FILLER_3_308
*3440 FILLER_3_311
*3441 FILLER_3_314
*3442 FILLER_3_317
*3443 FILLER_3_320
*3444 FILLER_3_323
*3445 FILLER_3_326
*3446 FILLER_3_329
*3447 FILLER_3_33
*3448 FILLER_3_332
*3449 FILLER_3_36
*3450 FILLER_3_39
*3451 FILLER_3_42
*3452 FILLER_3_45
*3453 FILLER_3_48
*3454 FILLER_3_51
*3455 FILLER_3_54
*3456 FILLER_3_57
*3457 FILLER_3_6
*3458 FILLER_3_60
*3459 FILLER_3_63
*3460 FILLER_3_66
*3461 FILLER_3_69
*3462 FILLER_3_72
*3463 FILLER_3_75
*3464 FILLER_3_78
*3465 FILLER_3_81
*3466 FILLER_3_84
*3467 FILLER_3_87
*3468 FILLER_3_9
*3469 FILLER_3_90
*3470 FILLER_3_93
*3471 FILLER_3_96
*3472 FILLER_3_99
*3473 FILLER_4_100
*3474 FILLER_4_103
*3475 FILLER_4_106
*3476 FILLER_4_109
*3477 FILLER_4_112
*3478 FILLER_4_115
*3479 FILLER_4_118
*3480 FILLER_4_12
*3481 FILLER_4_121
*3482 FILLER_4_124
*3483 FILLER_4_127
*3484 FILLER_4_130
*3485 FILLER_4_133
*3486 FILLER_4_136
*3487 FILLER_4_139
*3488 FILLER_4_141
*3489 FILLER_4_144
*3490 FILLER_4_147
*3491 FILLER_4_15
*3492 FILLER_4_150
*3493 FILLER_4_153
*3494 FILLER_4_156
*3495 FILLER_4_159
*3496 FILLER_4_162
*3497 FILLER_4_165
*3498 FILLER_4_168
*3499 FILLER_4_171
*3500 FILLER_4_174
*3501 FILLER_4_177
*3502 FILLER_4_18
*3503 FILLER_4_180
*3504 FILLER_4_183
*3505 FILLER_4_186
*3506 FILLER_4_189
*3507 FILLER_4_192
*3508 FILLER_4_195
*3509 FILLER_4_197
*3510 FILLER_4_200
*3511 FILLER_4_203
*3512 FILLER_4_206
*3513 FILLER_4_209
*3514 FILLER_4_21
*3515 FILLER_4_212
*3516 FILLER_4_215
*3517 FILLER_4_218
*3518 FILLER_4_221
*3519 FILLER_4_224
*3520 FILLER_4_227
*3521 FILLER_4_230
*3522 FILLER_4_233
*3523 FILLER_4_236
*3524 FILLER_4_239
*3525 FILLER_4_24
*3526 FILLER_4_242
*3527 FILLER_4_245
*3528 FILLER_4_248
*3529 FILLER_4_251
*3530 FILLER_4_253
*3531 FILLER_4_256
*3532 FILLER_4_259
*3533 FILLER_4_262
*3534 FILLER_4_265
*3535 FILLER_4_268
*3536 FILLER_4_27
*3537 FILLER_4_271
*3538 FILLER_4_274
*3539 FILLER_4_277
*3540 FILLER_4_280
*3541 FILLER_4_283
*3542 FILLER_4_286
*3543 FILLER_4_289
*3544 FILLER_4_29
*3545 FILLER_4_292
*3546 FILLER_4_295
*3547 FILLER_4_298
*3548 FILLER_4_3
*3549 FILLER_4_301
*3550 FILLER_4_304
*3551 FILLER_4_307
*3552 FILLER_4_309
*3553 FILLER_4_312
*3554 FILLER_4_315
*3555 FILLER_4_318
*3556 FILLER_4_32
*3557 FILLER_4_321
*3558 FILLER_4_324
*3559 FILLER_4_327
*3560 FILLER_4_330
*3561 FILLER_4_333
*3562 FILLER_4_35
*3563 FILLER_4_38
*3564 FILLER_4_41
*3565 FILLER_4_44
*3566 FILLER_4_47
*3567 FILLER_4_50
*3568 FILLER_4_53
*3569 FILLER_4_56
*3570 FILLER_4_59
*3571 FILLER_4_6
*3572 FILLER_4_62
*3573 FILLER_4_65
*3574 FILLER_4_68
*3575 FILLER_4_71
*3576 FILLER_4_74
*3577 FILLER_4_77
*3578 FILLER_4_80
*3579 FILLER_4_83
*3580 FILLER_4_85
*3581 FILLER_4_88
*3582 FILLER_4_9
*3583 FILLER_4_91
*3584 FILLER_4_94
*3585 FILLER_4_97
*3586 FILLER_5_102
*3587 FILLER_5_105
*3588 FILLER_5_108
*3589 FILLER_5_111
*3590 FILLER_5_113
*3591 FILLER_5_116
*3592 FILLER_5_119
*3593 FILLER_5_12
*3594 FILLER_5_122
*3595 FILLER_5_125
*3596 FILLER_5_128
*3597 FILLER_5_131
*3598 FILLER_5_134
*3599 FILLER_5_137
*3600 FILLER_5_140
*3601 FILLER_5_143
*3602 FILLER_5_146
*3603 FILLER_5_149
*3604 FILLER_5_15
*3605 FILLER_5_152
*3606 FILLER_5_155
*3607 FILLER_5_158
*3608 FILLER_5_161
*3609 FILLER_5_164
*3610 FILLER_5_167
*3611 FILLER_5_169
*3612 FILLER_5_172
*3613 FILLER_5_175
*3614 FILLER_5_178
*3615 FILLER_5_18
*3616 FILLER_5_181
*3617 FILLER_5_184
*3618 FILLER_5_187
*3619 FILLER_5_190
*3620 FILLER_5_193
*3621 FILLER_5_196
*3622 FILLER_5_199
*3623 FILLER_5_202
*3624 FILLER_5_205
*3625 FILLER_5_208
*3626 FILLER_5_21
*3627 FILLER_5_211
*3628 FILLER_5_214
*3629 FILLER_5_217
*3630 FILLER_5_220
*3631 FILLER_5_223
*3632 FILLER_5_225
*3633 FILLER_5_228
*3634 FILLER_5_231
*3635 FILLER_5_234
*3636 FILLER_5_237
*3637 FILLER_5_24
*3638 FILLER_5_240
*3639 FILLER_5_243
*3640 FILLER_5_246
*3641 FILLER_5_249
*3642 FILLER_5_252
*3643 FILLER_5_255
*3644 FILLER_5_258
*3645 FILLER_5_261
*3646 FILLER_5_264
*3647 FILLER_5_267
*3648 FILLER_5_27
*3649 FILLER_5_270
*3650 FILLER_5_273
*3651 FILLER_5_276
*3652 FILLER_5_279
*3653 FILLER_5_281
*3654 FILLER_5_284
*3655 FILLER_5_287
*3656 FILLER_5_290
*3657 FILLER_5_293
*3658 FILLER_5_296
*3659 FILLER_5_299
*3660 FILLER_5_3
*3661 FILLER_5_30
*3662 FILLER_5_302
*3663 FILLER_5_305
*3664 FILLER_5_308
*3665 FILLER_5_311
*3666 FILLER_5_314
*3667 FILLER_5_317
*3668 FILLER_5_320
*3669 FILLER_5_323
*3670 FILLER_5_326
*3671 FILLER_5_329
*3672 FILLER_5_33
*3673 FILLER_5_332
*3674 FILLER_5_36
*3675 FILLER_5_39
*3676 FILLER_5_42
*3677 FILLER_5_45
*3678 FILLER_5_48
*3679 FILLER_5_51
*3680 FILLER_5_54
*3681 FILLER_5_57
*3682 FILLER_5_6
*3683 FILLER_5_60
*3684 FILLER_5_63
*3685 FILLER_5_66
*3686 FILLER_5_69
*3687 FILLER_5_72
*3688 FILLER_5_75
*3689 FILLER_5_78
*3690 FILLER_5_81
*3691 FILLER_5_84
*3692 FILLER_5_87
*3693 FILLER_5_9
*3694 FILLER_5_90
*3695 FILLER_5_93
*3696 FILLER_5_96
*3697 FILLER_5_99
*3698 FILLER_6_100
*3699 FILLER_6_103
*3700 FILLER_6_106
*3701 FILLER_6_109
*3702 FILLER_6_112
*3703 FILLER_6_115
*3704 FILLER_6_118
*3705 FILLER_6_12
*3706 FILLER_6_121
*3707 FILLER_6_124
*3708 FILLER_6_127
*3709 FILLER_6_130
*3710 FILLER_6_133
*3711 FILLER_6_136
*3712 FILLER_6_139
*3713 FILLER_6_141
*3714 FILLER_6_144
*3715 FILLER_6_147
*3716 FILLER_6_15
*3717 FILLER_6_150
*3718 FILLER_6_153
*3719 FILLER_6_156
*3720 FILLER_6_159
*3721 FILLER_6_162
*3722 FILLER_6_165
*3723 FILLER_6_168
*3724 FILLER_6_171
*3725 FILLER_6_174
*3726 FILLER_6_177
*3727 FILLER_6_18
*3728 FILLER_6_180
*3729 FILLER_6_183
*3730 FILLER_6_186
*3731 FILLER_6_189
*3732 FILLER_6_192
*3733 FILLER_6_195
*3734 FILLER_6_197
*3735 FILLER_6_200
*3736 FILLER_6_203
*3737 FILLER_6_206
*3738 FILLER_6_209
*3739 FILLER_6_21
*3740 FILLER_6_212
*3741 FILLER_6_215
*3742 FILLER_6_218
*3743 FILLER_6_221
*3744 FILLER_6_224
*3745 FILLER_6_227
*3746 FILLER_6_230
*3747 FILLER_6_233
*3748 FILLER_6_236
*3749 FILLER_6_239
*3750 FILLER_6_24
*3751 FILLER_6_242
*3752 FILLER_6_245
*3753 FILLER_6_248
*3754 FILLER_6_251
*3755 FILLER_6_253
*3756 FILLER_6_256
*3757 FILLER_6_259
*3758 FILLER_6_262
*3759 FILLER_6_265
*3760 FILLER_6_268
*3761 FILLER_6_27
*3762 FILLER_6_271
*3763 FILLER_6_274
*3764 FILLER_6_277
*3765 FILLER_6_280
*3766 FILLER_6_283
*3767 FILLER_6_286
*3768 FILLER_6_289
*3769 FILLER_6_29
*3770 FILLER_6_292
*3771 FILLER_6_295
*3772 FILLER_6_298
*3773 FILLER_6_3
*3774 FILLER_6_301
*3775 FILLER_6_304
*3776 FILLER_6_307
*3777 FILLER_6_309
*3778 FILLER_6_312
*3779 FILLER_6_315
*3780 FILLER_6_318
*3781 FILLER_6_32
*3782 FILLER_6_321
*3783 FILLER_6_324
*3784 FILLER_6_327
*3785 FILLER_6_330
*3786 FILLER_6_333
*3787 FILLER_6_35
*3788 FILLER_6_38
*3789 FILLER_6_41
*3790 FILLER_6_44
*3791 FILLER_6_47
*3792 FILLER_6_50
*3793 FILLER_6_53
*3794 FILLER_6_56
*3795 FILLER_6_59
*3796 FILLER_6_6
*3797 FILLER_6_62
*3798 FILLER_6_65
*3799 FILLER_6_68
*3800 FILLER_6_71
*3801 FILLER_6_74
*3802 FILLER_6_77
*3803 FILLER_6_80
*3804 FILLER_6_83
*3805 FILLER_6_85
*3806 FILLER_6_88
*3807 FILLER_6_9
*3808 FILLER_6_91
*3809 FILLER_6_94
*3810 FILLER_6_97
*3811 FILLER_7_102
*3812 FILLER_7_105
*3813 FILLER_7_108
*3814 FILLER_7_111
*3815 FILLER_7_113
*3816 FILLER_7_116
*3817 FILLER_7_119
*3818 FILLER_7_12
*3819 FILLER_7_122
*3820 FILLER_7_125
*3821 FILLER_7_128
*3822 FILLER_7_131
*3823 FILLER_7_134
*3824 FILLER_7_137
*3825 FILLER_7_140
*3826 FILLER_7_143
*3827 FILLER_7_146
*3828 FILLER_7_149
*3829 FILLER_7_15
*3830 FILLER_7_152
*3831 FILLER_7_155
*3832 FILLER_7_158
*3833 FILLER_7_161
*3834 FILLER_7_164
*3835 FILLER_7_167
*3836 FILLER_7_169
*3837 FILLER_7_172
*3838 FILLER_7_175
*3839 FILLER_7_178
*3840 FILLER_7_18
*3841 FILLER_7_181
*3842 FILLER_7_184
*3843 FILLER_7_187
*3844 FILLER_7_190
*3845 FILLER_7_193
*3846 FILLER_7_196
*3847 FILLER_7_199
*3848 FILLER_7_202
*3849 FILLER_7_205
*3850 FILLER_7_208
*3851 FILLER_7_21
*3852 FILLER_7_211
*3853 FILLER_7_214
*3854 FILLER_7_217
*3855 FILLER_7_220
*3856 FILLER_7_223
*3857 FILLER_7_225
*3858 FILLER_7_228
*3859 FILLER_7_231
*3860 FILLER_7_234
*3861 FILLER_7_237
*3862 FILLER_7_24
*3863 FILLER_7_240
*3864 FILLER_7_243
*3865 FILLER_7_246
*3866 FILLER_7_249
*3867 FILLER_7_252
*3868 FILLER_7_255
*3869 FILLER_7_258
*3870 FILLER_7_261
*3871 FILLER_7_264
*3872 FILLER_7_267
*3873 FILLER_7_27
*3874 FILLER_7_270
*3875 FILLER_7_273
*3876 FILLER_7_276
*3877 FILLER_7_279
*3878 FILLER_7_281
*3879 FILLER_7_284
*3880 FILLER_7_287
*3881 FILLER_7_290
*3882 FILLER_7_293
*3883 FILLER_7_296
*3884 FILLER_7_299
*3885 FILLER_7_3
*3886 FILLER_7_30
*3887 FILLER_7_302
*3888 FILLER_7_305
*3889 FILLER_7_308
*3890 FILLER_7_311
*3891 FILLER_7_314
*3892 FILLER_7_317
*3893 FILLER_7_320
*3894 FILLER_7_323
*3895 FILLER_7_326
*3896 FILLER_7_329
*3897 FILLER_7_33
*3898 FILLER_7_332
*3899 FILLER_7_36
*3900 FILLER_7_39
*3901 FILLER_7_42
*3902 FILLER_7_45
*3903 FILLER_7_48
*3904 FILLER_7_51
*3905 FILLER_7_54
*3906 FILLER_7_57
*3907 FILLER_7_6
*3908 FILLER_7_60
*3909 FILLER_7_63
*3910 FILLER_7_66
*3911 FILLER_7_69
*3912 FILLER_7_72
*3913 FILLER_7_75
*3914 FILLER_7_78
*3915 FILLER_7_81
*3916 FILLER_7_84
*3917 FILLER_7_87
*3918 FILLER_7_9
*3919 FILLER_7_90
*3920 FILLER_7_93
*3921 FILLER_7_96
*3922 FILLER_7_99
*3923 FILLER_8_100
*3924 FILLER_8_103
*3925 FILLER_8_106
*3926 FILLER_8_109
*3927 FILLER_8_112
*3928 FILLER_8_115
*3929 FILLER_8_118
*3930 FILLER_8_12
*3931 FILLER_8_121
*3932 FILLER_8_124
*3933 FILLER_8_127
*3934 FILLER_8_130
*3935 FILLER_8_133
*3936 FILLER_8_136
*3937 FILLER_8_139
*3938 FILLER_8_141
*3939 FILLER_8_144
*3940 FILLER_8_147
*3941 FILLER_8_15
*3942 FILLER_8_150
*3943 FILLER_8_153
*3944 FILLER_8_156
*3945 FILLER_8_159
*3946 FILLER_8_162
*3947 FILLER_8_165
*3948 FILLER_8_168
*3949 FILLER_8_171
*3950 FILLER_8_174
*3951 FILLER_8_177
*3952 FILLER_8_18
*3953 FILLER_8_180
*3954 FILLER_8_183
*3955 FILLER_8_186
*3956 FILLER_8_189
*3957 FILLER_8_192
*3958 FILLER_8_195
*3959 FILLER_8_197
*3960 FILLER_8_200
*3961 FILLER_8_203
*3962 FILLER_8_206
*3963 FILLER_8_209
*3964 FILLER_8_21
*3965 FILLER_8_212
*3966 FILLER_8_215
*3967 FILLER_8_218
*3968 FILLER_8_221
*3969 FILLER_8_224
*3970 FILLER_8_227
*3971 FILLER_8_230
*3972 FILLER_8_233
*3973 FILLER_8_236
*3974 FILLER_8_239
*3975 FILLER_8_24
*3976 FILLER_8_242
*3977 FILLER_8_245
*3978 FILLER_8_248
*3979 FILLER_8_251
*3980 FILLER_8_253
*3981 FILLER_8_256
*3982 FILLER_8_259
*3983 FILLER_8_262
*3984 FILLER_8_265
*3985 FILLER_8_268
*3986 FILLER_8_27
*3987 FILLER_8_271
*3988 FILLER_8_274
*3989 FILLER_8_277
*3990 FILLER_8_280
*3991 FILLER_8_283
*3992 FILLER_8_286
*3993 FILLER_8_289
*3994 FILLER_8_29
*3995 FILLER_8_292
*3996 FILLER_8_295
*3997 FILLER_8_298
*3998 FILLER_8_3
*3999 FILLER_8_301
*4000 FILLER_8_304
*4001 FILLER_8_307
*4002 FILLER_8_309
*4003 FILLER_8_312
*4004 FILLER_8_315
*4005 FILLER_8_318
*4006 FILLER_8_32
*4007 FILLER_8_321
*4008 FILLER_8_324
*4009 FILLER_8_327
*4010 FILLER_8_330
*4011 FILLER_8_333
*4012 FILLER_8_35
*4013 FILLER_8_38
*4014 FILLER_8_41
*4015 FILLER_8_44
*4016 FILLER_8_47
*4017 FILLER_8_50
*4018 FILLER_8_53
*4019 FILLER_8_56
*4020 FILLER_8_59
*4021 FILLER_8_6
*4022 FILLER_8_62
*4023 FILLER_8_65
*4024 FILLER_8_68
*4025 FILLER_8_71
*4026 FILLER_8_74
*4027 FILLER_8_77
*4028 FILLER_8_80
*4029 FILLER_8_83
*4030 FILLER_8_85
*4031 FILLER_8_88
*4032 FILLER_8_9
*4033 FILLER_8_91
*4034 FILLER_8_94
*4035 FILLER_8_97
*4036 FILLER_9_102
*4037 FILLER_9_105
*4038 FILLER_9_108
*4039 FILLER_9_111
*4040 FILLER_9_113
*4041 FILLER_9_116
*4042 FILLER_9_119
*4043 FILLER_9_12
*4044 FILLER_9_122
*4045 FILLER_9_125
*4046 FILLER_9_128
*4047 FILLER_9_131
*4048 FILLER_9_134
*4049 FILLER_9_137
*4050 FILLER_9_140
*4051 FILLER_9_143
*4052 FILLER_9_146
*4053 FILLER_9_149
*4054 FILLER_9_15
*4055 FILLER_9_152
*4056 FILLER_9_155
*4057 FILLER_9_158
*4058 FILLER_9_161
*4059 FILLER_9_164
*4060 FILLER_9_167
*4061 FILLER_9_169
*4062 FILLER_9_172
*4063 FILLER_9_175
*4064 FILLER_9_178
*4065 FILLER_9_18
*4066 FILLER_9_181
*4067 FILLER_9_184
*4068 FILLER_9_187
*4069 FILLER_9_190
*4070 FILLER_9_193
*4071 FILLER_9_196
*4072 FILLER_9_199
*4073 FILLER_9_202
*4074 FILLER_9_205
*4075 FILLER_9_208
*4076 FILLER_9_21
*4077 FILLER_9_211
*4078 FILLER_9_214
*4079 FILLER_9_217
*4080 FILLER_9_220
*4081 FILLER_9_223
*4082 FILLER_9_225
*4083 FILLER_9_228
*4084 FILLER_9_231
*4085 FILLER_9_234
*4086 FILLER_9_237
*4087 FILLER_9_24
*4088 FILLER_9_240
*4089 FILLER_9_243
*4090 FILLER_9_246
*4091 FILLER_9_249
*4092 FILLER_9_252
*4093 FILLER_9_255
*4094 FILLER_9_258
*4095 FILLER_9_261
*4096 FILLER_9_264
*4097 FILLER_9_267
*4098 FILLER_9_27
*4099 FILLER_9_270
*4100 FILLER_9_273
*4101 FILLER_9_276
*4102 FILLER_9_279
*4103 FILLER_9_281
*4104 FILLER_9_284
*4105 FILLER_9_287
*4106 FILLER_9_290
*4107 FILLER_9_293
*4108 FILLER_9_296
*4109 FILLER_9_299
*4110 FILLER_9_3
*4111 FILLER_9_30
*4112 FILLER_9_302
*4113 FILLER_9_305
*4114 FILLER_9_308
*4115 FILLER_9_311
*4116 FILLER_9_314
*4117 FILLER_9_317
*4118 FILLER_9_320
*4119 FILLER_9_323
*4120 FILLER_9_326
*4121 FILLER_9_329
*4122 FILLER_9_33
*4123 FILLER_9_332
*4124 FILLER_9_36
*4125 FILLER_9_39
*4126 FILLER_9_42
*4127 FILLER_9_45
*4128 FILLER_9_48
*4129 FILLER_9_51
*4130 FILLER_9_54
*4131 FILLER_9_57
*4132 FILLER_9_6
*4133 FILLER_9_60
*4134 FILLER_9_63
*4135 FILLER_9_66
*4136 FILLER_9_69
*4137 FILLER_9_72
*4138 FILLER_9_75
*4139 FILLER_9_78
*4140 FILLER_9_81
*4141 FILLER_9_84
*4142 FILLER_9_87
*4143 FILLER_9_9
*4144 FILLER_9_90
*4145 FILLER_9_93
*4146 FILLER_9_96
*4147 FILLER_9_99
*4148 PHY_EDGE_ROW_0_Left_39
*4149 PHY_EDGE_ROW_0_Right_0
*4150 PHY_EDGE_ROW_10_Left_49
*4151 PHY_EDGE_ROW_10_Right_10
*4152 PHY_EDGE_ROW_11_Left_50
*4153 PHY_EDGE_ROW_11_Right_11
*4154 PHY_EDGE_ROW_12_Left_51
*4155 PHY_EDGE_ROW_12_Right_12
*4156 PHY_EDGE_ROW_13_Left_52
*4157 PHY_EDGE_ROW_13_Right_13
*4158 PHY_EDGE_ROW_14_Left_53
*4159 PHY_EDGE_ROW_14_Right_14
*4160 PHY_EDGE_ROW_15_Left_54
*4161 PHY_EDGE_ROW_15_Right_15
*4162 PHY_EDGE_ROW_16_Left_55
*4163 PHY_EDGE_ROW_16_Right_16
*4164 PHY_EDGE_ROW_17_Left_56
*4165 PHY_EDGE_ROW_17_Right_17
*4166 PHY_EDGE_ROW_18_Left_57
*4167 PHY_EDGE_ROW_18_Right_18
*4168 PHY_EDGE_ROW_19_Left_58
*4169 PHY_EDGE_ROW_19_Right_19
*4170 PHY_EDGE_ROW_1_Left_40
*4171 PHY_EDGE_ROW_1_Right_1
*4172 PHY_EDGE_ROW_20_Left_59
*4173 PHY_EDGE_ROW_20_Right_20
*4174 PHY_EDGE_ROW_21_Left_60
*4175 PHY_EDGE_ROW_21_Right_21
*4176 PHY_EDGE_ROW_22_Left_61
*4177 PHY_EDGE_ROW_22_Right_22
*4178 PHY_EDGE_ROW_23_Left_62
*4179 PHY_EDGE_ROW_23_Right_23
*4180 PHY_EDGE_ROW_24_Left_63
*4181 PHY_EDGE_ROW_24_Right_24
*4182 PHY_EDGE_ROW_25_Left_64
*4183 PHY_EDGE_ROW_25_Right_25
*4184 PHY_EDGE_ROW_26_Left_65
*4185 PHY_EDGE_ROW_26_Right_26
*4186 PHY_EDGE_ROW_27_Left_66
*4187 PHY_EDGE_ROW_27_Right_27
*4188 PHY_EDGE_ROW_28_Left_67
*4189 PHY_EDGE_ROW_28_Right_28
*4190 PHY_EDGE_ROW_29_Left_68
*4191 PHY_EDGE_ROW_29_Right_29
*4192 PHY_EDGE_ROW_2_Left_41
*4193 PHY_EDGE_ROW_2_Right_2
*4194 PHY_EDGE_ROW_30_Left_69
*4195 PHY_EDGE_ROW_30_Right_30
*4196 PHY_EDGE_ROW_31_Left_70
*4197 PHY_EDGE_ROW_31_Right_31
*4198 PHY_EDGE_ROW_32_Left_71
*4199 PHY_EDGE_ROW_32_Right_32
*4200 PHY_EDGE_ROW_33_Left_72
*4201 PHY_EDGE_ROW_33_Right_33
*4202 PHY_EDGE_ROW_34_Left_73
*4203 PHY_EDGE_ROW_34_Right_34
*4204 PHY_EDGE_ROW_35_Left_74
*4205 PHY_EDGE_ROW_35_Right_35
*4206 PHY_EDGE_ROW_36_Left_75
*4207 PHY_EDGE_ROW_36_Right_36
*4208 PHY_EDGE_ROW_37_Left_76
*4209 PHY_EDGE_ROW_37_Right_37
*4210 PHY_EDGE_ROW_38_Left_77
*4211 PHY_EDGE_ROW_38_Right_38
*4212 PHY_EDGE_ROW_3_Left_42
*4213 PHY_EDGE_ROW_3_Right_3
*4214 PHY_EDGE_ROW_4_Left_43
*4215 PHY_EDGE_ROW_4_Right_4
*4216 PHY_EDGE_ROW_5_Left_44
*4217 PHY_EDGE_ROW_5_Right_5
*4218 PHY_EDGE_ROW_6_Left_45
*4219 PHY_EDGE_ROW_6_Right_6
*4220 PHY_EDGE_ROW_7_Left_46
*4221 PHY_EDGE_ROW_7_Right_7
*4222 PHY_EDGE_ROW_8_Left_47
*4223 PHY_EDGE_ROW_8_Right_8
*4224 PHY_EDGE_ROW_9_Left_48
*4225 PHY_EDGE_ROW_9_Right_9
*4226 TAP_TAPCELL_ROW_0_78
*4227 TAP_TAPCELL_ROW_0_79
*4228 TAP_TAPCELL_ROW_0_80
*4229 TAP_TAPCELL_ROW_0_81
*4230 TAP_TAPCELL_ROW_0_82
*4231 TAP_TAPCELL_ROW_0_83
*4232 TAP_TAPCELL_ROW_0_84
*4233 TAP_TAPCELL_ROW_0_85
*4234 TAP_TAPCELL_ROW_0_86
*4235 TAP_TAPCELL_ROW_0_87
*4236 TAP_TAPCELL_ROW_0_88
*4237 TAP_TAPCELL_ROW_10_138
*4238 TAP_TAPCELL_ROW_10_139
*4239 TAP_TAPCELL_ROW_10_140
*4240 TAP_TAPCELL_ROW_10_141
*4241 TAP_TAPCELL_ROW_10_142
*4242 TAP_TAPCELL_ROW_10_143
*4243 TAP_TAPCELL_ROW_11_144
*4244 TAP_TAPCELL_ROW_11_145
*4245 TAP_TAPCELL_ROW_11_146
*4246 TAP_TAPCELL_ROW_11_147
*4247 TAP_TAPCELL_ROW_11_148
*4248 TAP_TAPCELL_ROW_12_149
*4249 TAP_TAPCELL_ROW_12_150
*4250 TAP_TAPCELL_ROW_12_151
*4251 TAP_TAPCELL_ROW_12_152
*4252 TAP_TAPCELL_ROW_12_153
*4253 TAP_TAPCELL_ROW_12_154
*4254 TAP_TAPCELL_ROW_13_155
*4255 TAP_TAPCELL_ROW_13_156
*4256 TAP_TAPCELL_ROW_13_157
*4257 TAP_TAPCELL_ROW_13_158
*4258 TAP_TAPCELL_ROW_13_159
*4259 TAP_TAPCELL_ROW_14_160
*4260 TAP_TAPCELL_ROW_14_161
*4261 TAP_TAPCELL_ROW_14_162
*4262 TAP_TAPCELL_ROW_14_163
*4263 TAP_TAPCELL_ROW_14_164
*4264 TAP_TAPCELL_ROW_14_165
*4265 TAP_TAPCELL_ROW_15_166
*4266 TAP_TAPCELL_ROW_15_167
*4267 TAP_TAPCELL_ROW_15_168
*4268 TAP_TAPCELL_ROW_15_169
*4269 TAP_TAPCELL_ROW_15_170
*4270 TAP_TAPCELL_ROW_16_171
*4271 TAP_TAPCELL_ROW_16_172
*4272 TAP_TAPCELL_ROW_16_173
*4273 TAP_TAPCELL_ROW_16_174
*4274 TAP_TAPCELL_ROW_16_175
*4275 TAP_TAPCELL_ROW_16_176
*4276 TAP_TAPCELL_ROW_17_177
*4277 TAP_TAPCELL_ROW_17_178
*4278 TAP_TAPCELL_ROW_17_179
*4279 TAP_TAPCELL_ROW_17_180
*4280 TAP_TAPCELL_ROW_17_181
*4281 TAP_TAPCELL_ROW_18_182
*4282 TAP_TAPCELL_ROW_18_183
*4283 TAP_TAPCELL_ROW_18_184
*4284 TAP_TAPCELL_ROW_18_185
*4285 TAP_TAPCELL_ROW_18_186
*4286 TAP_TAPCELL_ROW_18_187
*4287 TAP_TAPCELL_ROW_19_188
*4288 TAP_TAPCELL_ROW_19_189
*4289 TAP_TAPCELL_ROW_19_190
*4290 TAP_TAPCELL_ROW_19_191
*4291 TAP_TAPCELL_ROW_19_192
*4292 TAP_TAPCELL_ROW_1_89
*4293 TAP_TAPCELL_ROW_1_90
*4294 TAP_TAPCELL_ROW_1_91
*4295 TAP_TAPCELL_ROW_1_92
*4296 TAP_TAPCELL_ROW_1_93
*4297 TAP_TAPCELL_ROW_20_193
*4298 TAP_TAPCELL_ROW_20_194
*4299 TAP_TAPCELL_ROW_20_195
*4300 TAP_TAPCELL_ROW_20_196
*4301 TAP_TAPCELL_ROW_20_197
*4302 TAP_TAPCELL_ROW_20_198
*4303 TAP_TAPCELL_ROW_21_199
*4304 TAP_TAPCELL_ROW_21_200
*4305 TAP_TAPCELL_ROW_21_201
*4306 TAP_TAPCELL_ROW_21_202
*4307 TAP_TAPCELL_ROW_21_203
*4308 TAP_TAPCELL_ROW_22_204
*4309 TAP_TAPCELL_ROW_22_205
*4310 TAP_TAPCELL_ROW_22_206
*4311 TAP_TAPCELL_ROW_22_207
*4312 TAP_TAPCELL_ROW_22_208
*4313 TAP_TAPCELL_ROW_22_209
*4314 TAP_TAPCELL_ROW_23_210
*4315 TAP_TAPCELL_ROW_23_211
*4316 TAP_TAPCELL_ROW_23_212
*4317 TAP_TAPCELL_ROW_23_213
*4318 TAP_TAPCELL_ROW_23_214
*4319 TAP_TAPCELL_ROW_24_215
*4320 TAP_TAPCELL_ROW_24_216
*4321 TAP_TAPCELL_ROW_24_217
*4322 TAP_TAPCELL_ROW_24_218
*4323 TAP_TAPCELL_ROW_24_219
*4324 TAP_TAPCELL_ROW_24_220
*4325 TAP_TAPCELL_ROW_25_221
*4326 TAP_TAPCELL_ROW_25_222
*4327 TAP_TAPCELL_ROW_25_223
*4328 TAP_TAPCELL_ROW_25_224
*4329 TAP_TAPCELL_ROW_25_225
*4330 TAP_TAPCELL_ROW_26_226
*4331 TAP_TAPCELL_ROW_26_227
*4332 TAP_TAPCELL_ROW_26_228
*4333 TAP_TAPCELL_ROW_26_229
*4334 TAP_TAPCELL_ROW_26_230
*4335 TAP_TAPCELL_ROW_26_231
*4336 TAP_TAPCELL_ROW_27_232
*4337 TAP_TAPCELL_ROW_27_233
*4338 TAP_TAPCELL_ROW_27_234
*4339 TAP_TAPCELL_ROW_27_235
*4340 TAP_TAPCELL_ROW_27_236
*4341 TAP_TAPCELL_ROW_28_237
*4342 TAP_TAPCELL_ROW_28_238
*4343 TAP_TAPCELL_ROW_28_239
*4344 TAP_TAPCELL_ROW_28_240
*4345 TAP_TAPCELL_ROW_28_241
*4346 TAP_TAPCELL_ROW_28_242
*4347 TAP_TAPCELL_ROW_29_243
*4348 TAP_TAPCELL_ROW_29_244
*4349 TAP_TAPCELL_ROW_29_245
*4350 TAP_TAPCELL_ROW_29_246
*4351 TAP_TAPCELL_ROW_29_247
*4352 TAP_TAPCELL_ROW_2_94
*4353 TAP_TAPCELL_ROW_2_95
*4354 TAP_TAPCELL_ROW_2_96
*4355 TAP_TAPCELL_ROW_2_97
*4356 TAP_TAPCELL_ROW_2_98
*4357 TAP_TAPCELL_ROW_2_99
*4358 TAP_TAPCELL_ROW_30_248
*4359 TAP_TAPCELL_ROW_30_249
*4360 TAP_TAPCELL_ROW_30_250
*4361 TAP_TAPCELL_ROW_30_251
*4362 TAP_TAPCELL_ROW_30_252
*4363 TAP_TAPCELL_ROW_30_253
*4364 TAP_TAPCELL_ROW_31_254
*4365 TAP_TAPCELL_ROW_31_255
*4366 TAP_TAPCELL_ROW_31_256
*4367 TAP_TAPCELL_ROW_31_257
*4368 TAP_TAPCELL_ROW_31_258
*4369 TAP_TAPCELL_ROW_32_259
*4370 TAP_TAPCELL_ROW_32_260
*4371 TAP_TAPCELL_ROW_32_261
*4372 TAP_TAPCELL_ROW_32_262
*4373 TAP_TAPCELL_ROW_32_263
*4374 TAP_TAPCELL_ROW_32_264
*4375 TAP_TAPCELL_ROW_33_265
*4376 TAP_TAPCELL_ROW_33_266
*4377 TAP_TAPCELL_ROW_33_267
*4378 TAP_TAPCELL_ROW_33_268
*4379 TAP_TAPCELL_ROW_33_269
*4380 TAP_TAPCELL_ROW_34_270
*4381 TAP_TAPCELL_ROW_34_271
*4382 TAP_TAPCELL_ROW_34_272
*4383 TAP_TAPCELL_ROW_34_273
*4384 TAP_TAPCELL_ROW_34_274
*4385 TAP_TAPCELL_ROW_34_275
*4386 TAP_TAPCELL_ROW_35_276
*4387 TAP_TAPCELL_ROW_35_277
*4388 TAP_TAPCELL_ROW_35_278
*4389 TAP_TAPCELL_ROW_35_279
*4390 TAP_TAPCELL_ROW_35_280
*4391 TAP_TAPCELL_ROW_36_281
*4392 TAP_TAPCELL_ROW_36_282
*4393 TAP_TAPCELL_ROW_36_283
*4394 TAP_TAPCELL_ROW_36_284
*4395 TAP_TAPCELL_ROW_36_285
*4396 TAP_TAPCELL_ROW_36_286
*4397 TAP_TAPCELL_ROW_37_287
*4398 TAP_TAPCELL_ROW_37_288
*4399 TAP_TAPCELL_ROW_37_289
*4400 TAP_TAPCELL_ROW_37_290
*4401 TAP_TAPCELL_ROW_37_291
*4402 TAP_TAPCELL_ROW_38_292
*4403 TAP_TAPCELL_ROW_38_293
*4404 TAP_TAPCELL_ROW_38_294
*4405 TAP_TAPCELL_ROW_38_295
*4406 TAP_TAPCELL_ROW_38_296
*4407 TAP_TAPCELL_ROW_38_297
*4408 TAP_TAPCELL_ROW_38_298
*4409 TAP_TAPCELL_ROW_38_299
*4410 TAP_TAPCELL_ROW_38_300
*4411 TAP_TAPCELL_ROW_38_301
*4412 TAP_TAPCELL_ROW_38_302
*4413 TAP_TAPCELL_ROW_3_100
*4414 TAP_TAPCELL_ROW_3_101
*4415 TAP_TAPCELL_ROW_3_102
*4416 TAP_TAPCELL_ROW_3_103
*4417 TAP_TAPCELL_ROW_3_104
*4418 TAP_TAPCELL_ROW_4_105
*4419 TAP_TAPCELL_ROW_4_106
*4420 TAP_TAPCELL_ROW_4_107
*4421 TAP_TAPCELL_ROW_4_108
*4422 TAP_TAPCELL_ROW_4_109
*4423 TAP_TAPCELL_ROW_4_110
*4424 TAP_TAPCELL_ROW_5_111
*4425 TAP_TAPCELL_ROW_5_112
*4426 TAP_TAPCELL_ROW_5_113
*4427 TAP_TAPCELL_ROW_5_114
*4428 TAP_TAPCELL_ROW_5_115
*4429 TAP_TAPCELL_ROW_6_116
*4430 TAP_TAPCELL_ROW_6_117
*4431 TAP_TAPCELL_ROW_6_118
*4432 TAP_TAPCELL_ROW_6_119
*4433 TAP_TAPCELL_ROW_6_120
*4434 TAP_TAPCELL_ROW_6_121
*4435 TAP_TAPCELL_ROW_7_122
*4436 TAP_TAPCELL_ROW_7_123
*4437 TAP_TAPCELL_ROW_7_124
*4438 TAP_TAPCELL_ROW_7_125
*4439 TAP_TAPCELL_ROW_7_126
*4440 TAP_TAPCELL_ROW_8_127
*4441 TAP_TAPCELL_ROW_8_128
*4442 TAP_TAPCELL_ROW_8_129
*4443 TAP_TAPCELL_ROW_8_130
*4444 TAP_TAPCELL_ROW_8_131
*4445 TAP_TAPCELL_ROW_8_132
*4446 TAP_TAPCELL_ROW_9_133
*4447 TAP_TAPCELL_ROW_9_134
*4448 TAP_TAPCELL_ROW_9_135
*4449 TAP_TAPCELL_ROW_9_136
*4450 TAP_TAPCELL_ROW_9_137
*4451 _157_
*4452 _158_
*4453 _159_
*4454 _160_
*4455 _161_
*4456 _162_
*4457 _163_
*4458 _164_
*4459 _165_
*4460 _166_
*4461 _167_
*4462 _168_
*4463 _169_
*4464 _170_
*4465 _171_
*4466 _172_
*4467 _173_
*4468 _174_
*4469 _175_
*4470 _176_
*4471 _177_
*4472 _178_
*4473 _179_
*4474 _180_
*4475 _181_
*4476 _182_
*4477 _183_
*4478 _184_
*4479 _185_
*4480 _186_
*4481 _187_
*4482 _188_
*4483 _189_
*4484 _190_
*4485 _191_
*4486 _192_
*4487 _193_
*4488 _194_
*4489 _195_
*4490 _196_
*4491 _197_
*4492 _198_
*4493 _199_
*4494 _200_
*4495 _201_
*4496 _202_
*4497 _203_
*4498 _204_
*4499 _205_
*4500 _206_
*4501 _207_
*4502 _208_
*4503 _209_
*4504 _210_
*4505 _211_
*4506 _212_
*4507 _213_
*4508 _214_
*4509 _215_
*4510 _216_
*4511 _217_
*4512 _218_
*4513 _219_
*4514 _220_
*4515 _221_
*4516 _222_
*4517 _223_
*4518 _224_
*4519 _225_
*4520 _226_
*4521 _227_
*4522 _228_
*4523 _229_
*4524 _230_
*4525 _231_
*4526 _232_
*4527 _233_
*4528 _234_
*4529 _235_
*4530 _236_
*4531 _237_
*4532 _238_
*4533 _239_
*4534 _240_
*4535 _241_
*4536 _242_
*4537 _243_
*4538 _244_
*4539 _245_
*4540 _246_
*4541 _247_
*4542 _248_
*4543 _249_
*4544 _250_
*4545 _251_
*4546 _252_
*4547 _253_
*4548 _254_
*4549 _255_
*4550 _256_
*4551 _257_
*4552 _258_
*4553 _259_
*4554 _260_
*4555 _261_
*4556 _262_
*4557 _263_
*4558 _264_
*4559 _265_
*4560 _266_
*4561 _267_
*4562 _268_
*4563 _269_
*4564 _270_
*4565 _271_
*4566 _272_
*4567 _273_
*4568 _274_
*4569 _275_
*4570 _276_
*4571 _277_
*4572 _278_
*4573 _279_
*4574 _280_
*4575 _281_
*4576 _282_
*4577 _283_
*4578 _284_
*4579 _285_
*4580 _286_
*4581 _287_
*4582 _288_
*4583 _289_
*4584 _290_
*4585 _291_
*4586 _292_
*4587 _293_
*4588 _294_
*4589 _295_
*4590 _296_
*4591 _297_
*4592 _298_
*4593 _299_
*4594 _300_
*4595 _301_
*4596 _302_
*4597 _303_
*4598 _304_
*4599 _305_
*4600 _306_
*4601 _307_
*4602 _308_
*4603 _309_
*4604 _310_
*4605 _311_
*4606 _312_
*4607 _313_
*4608 _314_
*4609 _315_
*4610 _316_
*4611 _317_
*4612 _318_
*4613 _319_
*4614 _320_
*4615 _321_
*4616 _322_
*4617 _323_
*4618 _324_
*4619 _325_
*4620 _326_
*4621 _327_
*4622 _328_
*4623 _329_
*4624 clkbuf_0_clk
*4625 clkbuf_1_0__f_clk
*4626 clkbuf_1_1__f_clk
*4627 clkload0
*4628 fanout34
*4629 fanout35
*4630 fanout36
*4631 fanout37
*4632 fanout38
*4633 fanout39
*4634 fanout40
*4635 fanout41
*4636 fanout42
*4637 fanout43
*4638 fanout44
*4639 fanout45
*4640 fanout46
*4641 fanout47
*4642 fanout48
*4643 hold1
*4644 hold2
*4645 hold3
*4646 hold4
*4647 hold5
*4648 hold6
*4649 input1
*4650 input2
*4651 input3
*4652 input4
*4653 input5
*4654 input6
*4655 input7
*4656 input8
*4657 input9
*4658 max_cap19
*4659 max_cap21
*4660 max_cap22
*4661 max_cap24
*4662 max_cap25
*4663 output10
*4664 output11
*4665 output12
*4666 output13
*4667 output14
*4668 output15
*4669 output16
*4670 output17
*4671 tt_um_chip_rom_26
*4672 tt_um_chip_rom_27
*4673 tt_um_chip_rom_28
*4674 tt_um_chip_rom_29
*4675 tt_um_chip_rom_30
*4676 tt_um_chip_rom_31
*4677 tt_um_chip_rom_32
*4678 tt_um_chip_rom_33
*4679 tt_um_chip_rom_34
*4680 tt_um_chip_rom_35
*4681 tt_um_chip_rom_36
*4682 tt_um_chip_rom_37
*4683 tt_um_chip_rom_38
*4684 tt_um_chip_rom_39
*4685 tt_um_chip_rom_40
*4686 tt_um_chip_rom_41
*4687 wire18
*4688 wire20
*4689 wire23

*PORTS
clk I
ena I
rst_n I
ui_in[0] I
ui_in[1] I
ui_in[2] I
ui_in[3] I
ui_in[4] I
ui_in[5] I
ui_in[6] I
ui_in[7] I
uio_in[0] I
uio_in[1] I
uio_in[2] I
uio_in[3] I
uio_in[4] I
uio_in[5] I
uio_in[6] I
uio_in[7] I
uio_oe[0] O
uio_oe[1] O
uio_oe[2] O
uio_oe[3] O
uio_oe[4] O
uio_oe[5] O
uio_oe[6] O
uio_oe[7] O
uio_out[0] O
uio_out[1] O
uio_out[2] O
uio_out[3] O
uio_out[4] O
uio_out[5] O
uio_out[6] O
uio_out[7] O
uo_out[0] O
uo_out[1] O
uo_out[2] O
uo_out[3] O
uo_out[4] O
uo_out[5] O
uo_out[6] O
uo_out[7] O

*D_NET *3 0.0040348
*CONN
*P clk I
*I *4624:A I *D sky130_fd_sc_hd__clkbuf_16
*CAP
1 clk 0.0017225
2 *4624:A 0.0017225
3 *4624:A *4602:A 9.03127e-05
4 *4624:A *4603:B1 4.22135e-06
5 *4624:A *4620:CLK 0.000241852
6 *4624:A *4620:RESET_B 0
7 *4624:A *4649:A 5.87118e-05
8 *4624:A *141:19 7.08001e-05
9 *4624:A *141:23 0
10 *4624:A *214:24 0.000123903
*RES
1 clk *4624:A 32.5837 
*END

*D_NET *5 0.000537061
*CONN
*P rst_n I
*I *4649:A I *D sky130_fd_sc_hd__buf_1
*CAP
1 rst_n 0.000220407
2 *4649:A 0.000220407
3 *4649:A *4650:A 3.7536e-05
4 *4649:A *4652:A 0
5 *4624:A *4649:A 5.87118e-05
*RES
1 rst_n *4649:A 22.8157 
*END

*D_NET *6 0.000616715
*CONN
*P ui_in[0] I
*I *4650:A I *D sky130_fd_sc_hd__buf_1
*CAP
1 ui_in[0] 0.00028141
2 *4650:A 0.00028141
3 *4650:A *4651:A 1.63602e-05
4 *4650:A *4652:A 0
5 *4649:A *4650:A 3.7536e-05
*RES
1 ui_in[0] *4650:A 23.4605 
*END

*D_NET *7 0.000596972
*CONN
*P ui_in[1] I
*I *4651:A I *D sky130_fd_sc_hd__buf_1
*CAP
1 ui_in[1] 0.000279874
2 *4651:A 0.000279874
3 *4651:A *4652:A 2.08644e-05
4 *4650:A *4651:A 1.63602e-05
*RES
1 ui_in[1] *4651:A 23.9611 
*END

*D_NET *8 0.00066194
*CONN
*P ui_in[2] I
*I *4652:A I *D sky130_fd_sc_hd__buf_1
*CAP
1 ui_in[2] 0.000312358
2 *4652:A 0.000312358
3 *4652:A *4653:A 1.63602e-05
4 *4652:A *4654:A 0
5 *4649:A *4652:A 0
6 *4650:A *4652:A 0
7 *4651:A *4652:A 2.08644e-05
*RES
1 ui_in[2] *4652:A 22.9598 
*END

*D_NET *9 0.000597424
*CONN
*P ui_in[3] I
*I *4653:A I *D sky130_fd_sc_hd__buf_1
*CAP
1 ui_in[3] 0.0002801
2 *4653:A 0.0002801
3 *4653:A *4654:A 2.08644e-05
4 *4652:A *4653:A 1.63602e-05
*RES
1 ui_in[3] *4653:A 23.9611 
*END

*D_NET *10 0.000604954
*CONN
*P ui_in[4] I
*I *4654:A I *D sky130_fd_sc_hd__buf_1
*CAP
1 ui_in[4] 0.000283864
2 *4654:A 0.000283864
3 *4654:A *4655:A 1.63602e-05
4 *4654:A *4657:A 0
5 *4652:A *4654:A 0
6 *4653:A *4654:A 2.08644e-05
*RES
1 ui_in[4] *4654:A 23.4605 
*END

*D_NET *11 0.000511727
*CONN
*P ui_in[5] I
*I *4655:A I *D sky130_fd_sc_hd__buf_1
*CAP
1 ui_in[5] 0.000239504
2 *4655:A 0.000239504
3 *4655:A *4656:A 1.63602e-05
4 *4654:A *4655:A 1.63602e-05
*RES
1 ui_in[5] *4655:A 23.8169 
*END

*D_NET *12 0.000603397
*CONN
*P ui_in[6] I
*I *4656:A I *D sky130_fd_sc_hd__buf_1
*CAP
1 ui_in[6] 0.000283086
2 *4656:A 0.000283086
3 *4656:A *4657:A 2.08644e-05
4 *4655:A *4656:A 1.63602e-05
*RES
1 ui_in[6] *4656:A 23.9611 
*END

*D_NET *13 0.000630537
*CONN
*P ui_in[7] I
*I *4657:A I *D sky130_fd_sc_hd__buf_1
*CAP
1 ui_in[7] 0.000304836
2 *4657:A 0.000304836
3 *4654:A *4657:A 0
4 *4656:A *4657:A 2.08644e-05
*RES
1 ui_in[7] *4657:A 22.9598 
*END

*D_NET *22 0.00041663
*CONN
*P uio_oe[0] O
*I *4671:LO O *D sky130_fd_sc_hd__conb_1
*CAP
1 uio_oe[0] 0.000129501
2 *4671:LO 0.000129501
3 uio_oe[0] uio_oe[1] 7.88136e-05
4 uio_oe[0] uio_out[7] 7.88136e-05
*RES
1 *4671:LO uio_oe[0] 21.4044 
*END

*D_NET *23 0.00041663
*CONN
*P uio_oe[1] O
*I *4672:LO O *D sky130_fd_sc_hd__conb_1
*CAP
1 uio_oe[1] 0.000129501
2 *4672:LO 0.000129501
3 uio_oe[1] uio_oe[2] 7.88136e-05
4 uio_oe[0] uio_oe[1] 7.88136e-05
*RES
1 *4672:LO uio_oe[1] 21.4044 
*END

*D_NET *24 0.00041663
*CONN
*P uio_oe[2] O
*I *4673:LO O *D sky130_fd_sc_hd__conb_1
*CAP
1 uio_oe[2] 0.000129501
2 *4673:LO 0.000129501
3 uio_oe[2] uio_oe[3] 7.88136e-05
4 uio_oe[1] uio_oe[2] 7.88136e-05
*RES
1 *4673:LO uio_oe[2] 21.4044 
*END

*D_NET *25 0.00041663
*CONN
*P uio_oe[3] O
*I *4674:LO O *D sky130_fd_sc_hd__conb_1
*CAP
1 uio_oe[3] 0.000129501
2 *4674:LO 0.000129501
3 uio_oe[3] uio_oe[4] 7.88136e-05
4 uio_oe[2] uio_oe[3] 7.88136e-05
*RES
1 *4674:LO uio_oe[3] 21.4044 
*END

*D_NET *26 0.00041663
*CONN
*P uio_oe[4] O
*I *4675:LO O *D sky130_fd_sc_hd__conb_1
*CAP
1 uio_oe[4] 0.000129501
2 *4675:LO 0.000129501
3 uio_oe[4] uio_oe[5] 7.88136e-05
4 uio_oe[3] uio_oe[4] 7.88136e-05
*RES
1 *4675:LO uio_oe[4] 21.4044 
*END

*D_NET *27 0.00041663
*CONN
*P uio_oe[5] O
*I *4676:LO O *D sky130_fd_sc_hd__conb_1
*CAP
1 uio_oe[5] 0.000129501
2 *4676:LO 0.000129501
3 uio_oe[5] uio_oe[6] 7.88136e-05
4 uio_oe[4] uio_oe[5] 7.88136e-05
*RES
1 *4676:LO uio_oe[5] 21.4044 
*END

*D_NET *28 0.00041663
*CONN
*P uio_oe[6] O
*I *4677:LO O *D sky130_fd_sc_hd__conb_1
*CAP
1 uio_oe[6] 0.000129501
2 *4677:LO 0.000129501
3 uio_oe[6] uio_oe[7] 7.88136e-05
4 uio_oe[5] uio_oe[6] 7.88136e-05
*RES
1 *4677:LO uio_oe[6] 21.4044 
*END

*D_NET *29 0.000394042
*CONN
*P uio_oe[7] O
*I *4678:LO O *D sky130_fd_sc_hd__conb_1
*CAP
1 uio_oe[7] 0.000157614
2 *4678:LO 0.000157614
3 uio_oe[6] uio_oe[7] 7.88136e-05
*RES
1 *4678:LO uio_oe[7] 21.4044 
*END

*D_NET *30 0.000431416
*CONN
*P uio_out[0] O
*I *4679:LO O *D sky130_fd_sc_hd__conb_1
*CAP
1 uio_out[0] 0.000136894
2 *4679:LO 0.000136894
3 uio_out[0] uio_out[1] 7.88136e-05
4 uio_out[0] uo_out[7] 7.88136e-05
*RES
1 *4679:LO uio_out[0] 21.4044 
*END

*D_NET *31 0.00041663
*CONN
*P uio_out[1] O
*I *4680:LO O *D sky130_fd_sc_hd__conb_1
*CAP
1 uio_out[1] 0.000129501
2 *4680:LO 0.000129501
3 uio_out[1] uio_out[2] 7.88136e-05
4 uio_out[0] uio_out[1] 7.88136e-05
*RES
1 *4680:LO uio_out[1] 21.4044 
*END

*D_NET *32 0.000508546
*CONN
*P uio_out[2] O
*I *4681:LO O *D sky130_fd_sc_hd__conb_1
*CAP
1 uio_out[2] 0.00017546
2 *4681:LO 0.00017546
3 uio_out[2] uio_out[3] 7.88136e-05
4 uio_out[1] uio_out[2] 7.88136e-05
*RES
1 *4681:LO uio_out[2] 21.5485 
*END

*D_NET *33 0.000509042
*CONN
*P uio_out[3] O
*I *4682:LO O *D sky130_fd_sc_hd__conb_1
*CAP
1 uio_out[3] 0.000172815
2 *4682:LO 0.000172815
3 uio_out[3] uio_out[4] 8.45972e-05
4 uio_out[2] uio_out[3] 7.88136e-05
*RES
1 *4682:LO uio_out[3] 21.5485 
*END

*D_NET *34 0.000417118
*CONN
*P uio_out[4] O
*I *4683:LO O *D sky130_fd_sc_hd__conb_1
*CAP
1 uio_out[4] 0.000126853
2 *4683:LO 0.000126853
3 uio_out[4] uio_out[5] 7.88136e-05
4 uio_out[3] uio_out[4] 8.45972e-05
*RES
1 *4683:LO uio_out[4] 21.4044 
*END

*D_NET *35 0.00041663
*CONN
*P uio_out[5] O
*I *4684:LO O *D sky130_fd_sc_hd__conb_1
*CAP
1 uio_out[5] 0.000129501
2 *4684:LO 0.000129501
3 uio_out[5] uio_out[6] 7.88136e-05
4 uio_out[4] uio_out[5] 7.88136e-05
*RES
1 *4684:LO uio_out[5] 21.4044 
*END

*D_NET *36 0.00041663
*CONN
*P uio_out[6] O
*I *4685:LO O *D sky130_fd_sc_hd__conb_1
*CAP
1 uio_out[6] 0.000129501
2 *4685:LO 0.000129501
3 uio_out[6] uio_out[7] 7.88136e-05
4 uio_out[5] uio_out[6] 7.88136e-05
*RES
1 *4685:LO uio_out[6] 21.4044 
*END

*D_NET *37 0.00041663
*CONN
*P uio_out[7] O
*I *4686:LO O *D sky130_fd_sc_hd__conb_1
*CAP
1 uio_out[7] 0.000129501
2 *4686:LO 0.000129501
3 uio_oe[0] uio_out[7] 7.88136e-05
4 uio_out[6] uio_out[7] 7.88136e-05
*RES
1 *4686:LO uio_out[7] 21.4044 
*END

*D_NET *38 0.000405264
*CONN
*P uo_out[0] O
*I *4663:X O *D sky130_fd_sc_hd__clkbuf_1
*CAP
1 uo_out[0] 0.000163225
2 *4663:X 0.000163225
3 uo_out[0] uo_out[1] 7.88136e-05
*RES
1 *4663:X uo_out[0] 21.4044 
*END

*D_NET *39 0.000423816
*CONN
*P uo_out[1] O
*I *4664:X O *D sky130_fd_sc_hd__clkbuf_1
*CAP
1 uo_out[1] 0.000133094
2 *4664:X 0.000133094
3 uo_out[1] uo_out[2] 7.88136e-05
4 uo_out[0] uo_out[1] 7.88136e-05
*RES
1 *4664:X uo_out[1] 21.4044 
*END

*D_NET *40 0.000423816
*CONN
*P uo_out[2] O
*I *4665:X O *D sky130_fd_sc_hd__clkbuf_1
*CAP
1 uo_out[2] 0.000133094
2 *4665:X 0.000133094
3 uo_out[2] uo_out[3] 7.88136e-05
4 uo_out[1] uo_out[2] 7.88136e-05
*RES
1 *4665:X uo_out[2] 21.4044 
*END

*D_NET *41 0.000423816
*CONN
*P uo_out[3] O
*I *4666:X O *D sky130_fd_sc_hd__clkbuf_1
*CAP
1 uo_out[3] 0.000133094
2 *4666:X 0.000133094
3 uo_out[3] uo_out[4] 7.88136e-05
4 uo_out[2] uo_out[3] 7.88136e-05
*RES
1 *4666:X uo_out[3] 21.4044 
*END

*D_NET *42 0.000421782
*CONN
*P uo_out[4] O
*I *4667:X O *D sky130_fd_sc_hd__clkbuf_1
*CAP
1 uo_out[4] 0.000132077
2 *4667:X 0.000132077
3 uo_out[4] uo_out[5] 7.88136e-05
4 uo_out[3] uo_out[4] 7.88136e-05
*RES
1 *4667:X uo_out[4] 21.4044 
*END

*D_NET *43 0.000422143
*CONN
*P uo_out[5] O
*I *4668:X O *D sky130_fd_sc_hd__clkbuf_1
*CAP
1 uo_out[5] 0.000132258
2 *4668:X 0.000132258
3 uo_out[5] uo_out[6] 7.88136e-05
4 uo_out[4] uo_out[5] 7.88136e-05
*RES
1 *4668:X uo_out[5] 21.4044 
*END

*D_NET *44 0.000422143
*CONN
*P uo_out[6] O
*I *4669:X O *D sky130_fd_sc_hd__clkbuf_1
*CAP
1 uo_out[6] 0.000132258
2 *4669:X 0.000132258
3 uo_out[6] uo_out[7] 7.88136e-05
4 uo_out[5] uo_out[6] 7.88136e-05
*RES
1 *4669:X uo_out[6] 21.4044 
*END

*D_NET *45 0.000431416
*CONN
*P uo_out[7] O
*I *4670:X O *D sky130_fd_sc_hd__clkbuf_1
*CAP
1 uo_out[7] 0.000136894
2 *4670:X 0.000136894
3 uio_out[0] uo_out[7] 7.88136e-05
4 uo_out[6] uo_out[7] 7.88136e-05
*RES
1 *4670:X uo_out[7] 21.4044 
*END

*D_NET *46 0.000234742
*CONN
*I *4616:D I *D sky130_fd_sc_hd__dfrtp_4
*I *4452:Y O *D sky130_fd_sc_hd__inv_1
*CAP
1 *4616:D 0.00010242
2 *4452:Y 0.00010242
3 *4616:D *4594:B 1.96517e-05
4 *4616:D *4616:RESET_B 1.02504e-05
5 *4616:D *4617:CLK 0
6 *4616:D *239:10 0
*RES
1 *4452:Y *4616:D 29.2696 
*END

*D_NET *47 0.0007336
*CONN
*I *4617:D I *D sky130_fd_sc_hd__dfrtp_4
*I *4594:X O *D sky130_fd_sc_hd__xor2_1
*CAP
1 *4617:D 0.000230166
2 *4594:X 0.000230166
3 *4617:D *4617:CLK 4.57352e-05
4 *4617:D *4617:RESET_B 0
5 *4617:D *204:56 0.000227532
*RES
1 *4594:X *4617:D 31.4214 
*END

*D_NET *48 0.00076192
*CONN
*I *4618:D I *D sky130_fd_sc_hd__dfrtp_4
*I *4597:Y O *D sky130_fd_sc_hd__nor2_1
*CAP
1 *4618:D 0.000367992
2 *4597:Y 0.000367992
3 *4618:D *139:25 0
4 *4618:D *248:14 2.59355e-05
*RES
1 *4597:Y *4618:D 32.2429 
*END

*D_NET *49 0.000754855
*CONN
*I *4619:D I *D sky130_fd_sc_hd__dfrtp_4
*I *4600:Y O *D sky130_fd_sc_hd__nor2_1
*CAP
1 *4619:D 0.000144045
2 *4600:Y 0.000144045
3 *4619:D *4600:B 4.15914e-05
4 *4619:D *4611:A 0.000197998
5 *4619:D *139:25 0.00015234
6 *4619:D *214:24 7.48356e-05
*RES
1 *4600:Y *4619:D 31.9036 
*END

*D_NET *50 0.000488176
*CONN
*I *4620:D I *D sky130_fd_sc_hd__dfrtp_4
*I *4601:X O *D sky130_fd_sc_hd__xor2_1
*CAP
1 *4620:D 0.000216473
2 *4601:X 0.000216473
3 *4620:D *4620:CLK 5.52302e-05
*RES
1 *4601:X *4620:D 22.1536 
*END

*D_NET *51 0.000310401
*CONN
*I *4621:D I *D sky130_fd_sc_hd__dfrtp_4
*I *4604:Y O *D sky130_fd_sc_hd__nor2_1
*CAP
1 *4621:D 0.000128534
2 *4604:Y 0.000128534
3 *4621:D *4621:CLK 5.33334e-05
*RES
1 *4604:Y *4621:D 20.7786 
*END

*D_NET *52 0.000936237
*CONN
*I *4622:D I *D sky130_fd_sc_hd__dfrtp_4
*I *4607:X O *D sky130_fd_sc_hd__and2_1
*CAP
1 *4622:D 0.000352239
2 *4607:X 0.000352239
3 *4622:D *4622:CLK 4.57445e-05
4 *4622:D *4622:RESET_B 0
5 *4622:D *4623:CLK 0.000151061
6 *4622:D *209:12 3.4954e-05
*RES
1 *4607:X *4622:D 33.0643 
*END

*D_NET *53 0.0013876
*CONN
*I *4623:D I *D sky130_fd_sc_hd__dfrtp_1
*I *4608:Y O *D sky130_fd_sc_hd__xnor2_1
*CAP
1 *4623:D 0.000471103
2 *4608:Y 0.000471103
3 *4623:D *4608:A 3.18676e-05
4 *4623:D *4608:B 0.000139343
5 *4623:D *4615:A 1.37743e-05
6 *4623:D *4623:RESET_B 3.28686e-05
7 *4623:D *4643:A 0.000227539
8 *4623:D *239:10 0
9 *4623:D *249:10 0
*RES
1 *4608:Y *4623:D 36.2429 
*END

*D_NET *54 0.00813965
*CONN
*I *4480:A1 I *D sky130_fd_sc_hd__o21a_4
*I *4509:A1 I *D sky130_fd_sc_hd__o21ai_4
*I *4494:A I *D sky130_fd_sc_hd__or2_4
*I *4479:A1 I *D sky130_fd_sc_hd__o21ai_1
*I *4454:A1 I *D sky130_fd_sc_hd__o21ai_4
*I *4616:RESET_B I *D sky130_fd_sc_hd__dfrtp_4
*I *4451:Y O *D sky130_fd_sc_hd__inv_6
*CAP
1 *4480:A1 0
2 *4509:A1 0.000356899
3 *4494:A 0.000184382
4 *4479:A1 0
5 *4454:A1 0
6 *4616:RESET_B 0.000829386
7 *4451:Y 0.000307364
8 *54:48 0.000923754
9 *54:39 0.000581027
10 *54:33 0.000811039
11 *54:12 0.00102012
12 *54:10 0.00111058
13 *4494:A *4494:B 5.71472e-05
14 *4509:A1 *4494:B 0.000224331
15 *4509:A1 *4509:B1 0
16 *4616:RESET_B *4454:B1 0
17 *4616:RESET_B *4455:A0 5.41054e-05
18 *4616:RESET_B *4455:A1 0.000175512
19 *4616:RESET_B *4455:S 0.000168698
20 *4616:RESET_B *4617:CLK 0
21 *4616:RESET_B *212:18 0
22 *4616:RESET_B *239:10 0
23 *4616:RESET_B *247:10 0.000153047
24 *4616:RESET_B *247:36 1.00375e-05
25 *4616:RESET_B *249:10 9.25014e-06
26 *54:10 *239:10 0
27 *54:10 *249:10 0.000500943
28 *54:12 *239:10 0
29 *54:12 *249:10 0.00041107
30 *54:39 *4480:A2 6.5185e-05
31 *54:39 *4480:B1 0.000175512
32 *4616:D *4616:RESET_B 1.02504e-05
*RES
1 *4451:Y *54:10 20.8357 
2 *54:10 *54:12 5.28571 
3 *54:12 *4616:RESET_B 21.2054 
4 *54:12 *4454:A1 13.8 
5 *54:10 *54:33 14.4821 
6 *54:33 *54:39 8.82143 
7 *54:39 *4479:A1 13.8 
8 *54:39 *54:48 6.80357 
9 *54:48 *4494:A 16.8179 
10 *54:48 *4509:A1 21.8179 
11 *54:33 *4480:A1 9.3 
*END

*D_NET *55 0.000340088
*CONN
*I *4617:RESET_B I *D sky130_fd_sc_hd__dfrtp_4
*I *4609:Y O *D sky130_fd_sc_hd__inv_1
*CAP
1 *4617:RESET_B 0.000153382
2 *4609:Y 0.000153382
3 *4617:RESET_B *204:56 3.33238e-05
4 *4617:D *4617:RESET_B 0
*RES
1 *4609:Y *4617:RESET_B 20.8804 
*END

*D_NET *56 0.000823351
*CONN
*I *4618:RESET_B I *D sky130_fd_sc_hd__dfrtp_4
*I *4610:Y O *D sky130_fd_sc_hd__inv_1
*CAP
1 *4618:RESET_B 0.000353664
2 *4610:Y 0.000353664
3 *4618:RESET_B *4596:B1 7.90536e-05
4 *4618:RESET_B *4647:A 3.69697e-05
*RES
1 *4610:Y *4618:RESET_B 23.1482 
*END

*D_NET *57 0.00025093
*CONN
*I *4619:RESET_B I *D sky130_fd_sc_hd__dfrtp_4
*I *4611:Y O *D sky130_fd_sc_hd__inv_1
*CAP
1 *4619:RESET_B 0.000108803
2 *4611:Y 0.000108803
3 *4619:RESET_B *4611:A 0
4 *4619:RESET_B *206:14 3.33238e-05
*RES
1 *4611:Y *4619:RESET_B 19.9696 
*END

*D_NET *58 0.000571589
*CONN
*I *4620:RESET_B I *D sky130_fd_sc_hd__dfrtp_4
*I *4612:Y O *D sky130_fd_sc_hd__inv_1
*CAP
1 *4620:RESET_B 0.000285794
2 *4612:Y 0.000285794
3 *4624:A *4620:RESET_B 0
*RES
1 *4612:Y *4620:RESET_B 22.0232 
*END

*D_NET *59 0.000518812
*CONN
*I *4621:RESET_B I *D sky130_fd_sc_hd__dfrtp_4
*I *4613:Y O *D sky130_fd_sc_hd__inv_1
*CAP
1 *4621:RESET_B 0.000188516
2 *4613:Y 0.000188516
3 *4621:RESET_B *4603:B1 0.000101545
4 *4621:RESET_B *4614:A 4.02348e-05
5 *4621:RESET_B *213:25 0
*RES
1 *4613:Y *4621:RESET_B 21.2643 
*END

*D_NET *60 0.000316037
*CONN
*I *4622:RESET_B I *D sky130_fd_sc_hd__dfrtp_4
*I *4614:Y O *D sky130_fd_sc_hd__inv_1
*CAP
1 *4622:RESET_B 0.000152687
2 *4614:Y 0.000152687
3 *4622:RESET_B *209:12 1.06618e-05
4 *4622:D *4622:RESET_B 0
*RES
1 *4614:Y *4622:RESET_B 20.8804 
*END

*D_NET *61 0.000544046
*CONN
*I *4623:RESET_B I *D sky130_fd_sc_hd__dfrtp_1
*I *4615:Y O *D sky130_fd_sc_hd__inv_1
*CAP
1 *4623:RESET_B 7.33798e-05
2 *4615:Y 7.33798e-05
3 *4623:RESET_B *4615:A 0.000128161
4 *4623:RESET_B *247:80 5.83233e-05
5 *4623:RESET_B *249:10 0.000177934
6 *4623:D *4623:RESET_B 3.28686e-05
*RES
1 *4615:Y *4623:RESET_B 20.8804 
*END

*D_NET *62 0.0173866
*CONN
*I *4592:A0 I *D sky130_fd_sc_hd__mux2_1
*I *4513:A2 I *D sky130_fd_sc_hd__a22o_1
*I *4574:A1 I *D sky130_fd_sc_hd__a22o_1
*I *4530:B2 I *D sky130_fd_sc_hd__a32o_1
*I *4561:B2 I *D sky130_fd_sc_hd__a22o_1
*I *4511:B I *D sky130_fd_sc_hd__nor3_2
*I *4580:A0 I *D sky130_fd_sc_hd__mux2_1
*I *4548:A0 I *D sky130_fd_sc_hd__mux2_1
*I *4509:Y O *D sky130_fd_sc_hd__o21ai_4
*CAP
1 *4592:A0 0.00108452
2 *4513:A2 0
3 *4574:A1 2.23854e-05
4 *4530:B2 2.37804e-05
5 *4561:B2 0.000103396
6 *4511:B 2.06112e-05
7 *4580:A0 0.000124481
8 *4548:A0 0.00156072
9 *4509:Y 0.000958488
10 *62:38 0.00165681
11 *62:32 0.0016616
12 *62:26 0.00108526
13 *62:22 0.00109995
14 *62:18 0.00138414
15 *62:14 0.00164108
16 *4511:B *4511:A 3.99614e-06
17 *4530:B2 *4530:A2 5.76121e-05
18 *4530:B2 *4530:B1 9.90431e-05
19 *4548:A0 *4548:S 0.000230475
20 *4561:B2 *4512:A 1.81709e-05
21 *4561:B2 *4512:B 0.000173804
22 *4561:B2 *4561:A2 5.33005e-05
23 *4561:B2 *4561:B1 0.000218734
24 *4580:A0 *4580:S 7.30398e-05
25 *4592:A0 *4548:A1 7.83659e-05
26 *4592:A0 *4548:S 0
27 *4592:A0 *4592:A1 0.000175493
28 *4592:A0 *217:10 0
29 *62:14 *4513:B2 0
30 *62:14 *4663:A 8.59213e-05
31 *62:18 *4513:B1 0.000274134
32 *62:18 *65:36 5.23142e-05
33 *62:22 *4530:A1 0.000446597
34 *62:22 *4530:A2 6.2155e-06
35 *62:22 *4530:B1 0.000164762
36 *62:22 *65:36 0.000125728
37 *62:26 *4512:A 5.33005e-05
38 *62:26 *4530:A2 1.92905e-05
39 *62:26 *4554:B1 0.000357048
40 *62:26 *4593:C 0.000237345
41 *62:26 *4670:A 0.000137647
42 *62:26 *189:76 5.33005e-05
43 *62:32 *4511:A 2.28499e-05
44 *62:32 *4512:A 1.76135e-05
45 *62:32 *4560:B1 0.000843861
46 *62:32 *4561:B1 0.000363245
47 *62:38 *4511:C 3.28686e-05
48 *62:38 *4580:S 0.000130264
49 *62:38 *64:10 0.000353079
*RES
1 *4509:Y *62:14 35.0679 
2 *62:14 *62:18 9.48214 
3 *62:18 *62:22 9.89286 
4 *62:22 *62:26 14.8929 
5 *62:26 *62:32 18.75 
6 *62:32 *62:38 23.6786 
7 *62:38 *4548:A0 22.1393 
8 *62:38 *4580:A0 16.6571 
9 *62:32 *4511:B 9.72857 
10 *62:26 *4561:B2 17.1929 
11 *62:22 *4530:B2 10.6571 
12 *62:18 *4574:A1 9.72857 
13 *62:14 *4513:A2 9.3 
14 *4548:A0 *4592:A0 45.5464 
*END

*D_NET *63 0.0061087
*CONN
*I *4559:A1 I *D sky130_fd_sc_hd__o211ai_1
*I *4511:C I *D sky130_fd_sc_hd__nor3_2
*I *4577:A1 I *D sky130_fd_sc_hd__a31o_1
*I *4538:B1 I *D sky130_fd_sc_hd__a311o_1
*I *4510:Y O *D sky130_fd_sc_hd__nand2_2
*CAP
1 *4559:A1 0
2 *4511:C 8.87175e-05
3 *4577:A1 2.68362e-05
4 *4538:B1 0.000332947
5 *4510:Y 0.000819294
6 *63:43 0.000683434
7 *63:10 0.000584362
8 *4511:C *4559:A2 0.000173083
9 *4511:C *165:8 6.04162e-05
10 *4538:B1 *4520:B 3.34366e-05
11 *4538:B1 *4534:A 4.61329e-05
12 *4538:B1 *4538:A1 5.52302e-05
13 *4538:B1 *4539:B1 0.000109606
14 *4538:B1 *4539:C1 1.94945e-05
15 *4538:B1 *4546:A2 0
16 *4538:B1 *4577:B1 0
17 *4538:B1 *161:36 0.000137983
18 *4538:B1 *163:50 6.29036e-05
19 *4538:B1 *163:69 0.000144773
20 *4538:B1 *177:66 0.000209629
21 *4577:A1 *4484:A 0.000186662
22 *4577:A1 *4577:A2 5.71472e-05
23 *4577:A1 *4577:A3 9.90367e-05
24 *4577:A1 *67:22 1.69961e-05
25 *63:10 *4510:B 0.000157211
26 *63:10 *4577:B1 0
27 *63:10 *4578:B1 0.000270236
28 *63:10 *177:66 4.46186e-06
29 *63:10 *221:12 0.000137983
30 *63:43 *4560:B1 0.000160816
31 *63:43 *189:28 0.001397
32 *62:38 *4511:C 3.28686e-05
*RES
1 *4510:Y *63:10 19.2286 
2 *63:10 *4538:B1 21.9071 
3 *63:10 *4577:A1 15.5679 
4 *4510:Y *63:43 23.1214 
5 *63:43 *4511:C 20.8804 
6 *63:43 *4559:A1 9.3 
*END

*D_NET *64 0.0124461
*CONN
*I *4593:B I *D sky130_fd_sc_hd__and3_1
*I *4512:B I *D sky130_fd_sc_hd__and2_4
*I *4579:B1 I *D sky130_fd_sc_hd__o211a_1
*I *4547:B1 I *D sky130_fd_sc_hd__o21a_1
*I *4591:B I *D sky130_fd_sc_hd__and3_1
*I *4511:Y O *D sky130_fd_sc_hd__nor3_2
*CAP
1 *4593:B 0.000116804
2 *4512:B 0.000116224
3 *4579:B1 1.55867e-05
4 *4547:B1 0
5 *4591:B 0.00145266
6 *4511:Y 0.000300163
7 *64:49 0.000703291
8 *64:38 0.000640676
9 *64:14 0.00156763
10 *64:10 0.000569963
11 *4512:B *4512:A 0.000342502
12 *4512:B *65:12 4.48113e-05
13 *4579:B1 *4579:A1 2.89016e-05
14 *4579:B1 *4579:A2 2.36164e-05
15 *4591:B *4546:A2 9.25014e-06
16 *4591:B *4546:B1 3.92854e-05
17 *4591:B *4548:S 0
18 *4591:B *4580:S 0
19 *4591:B *189:32 3.48235e-05
20 *4591:B *217:12 0.000706537
21 *4591:B *221:12 0.00139922
22 *4593:B *4554:B1 0.000169359
23 *64:10 *4547:A2 7.8327e-05
24 *64:10 *162:24 0
25 *64:14 *4547:A1 0.000712417
26 *64:14 *4547:A2 1.74352e-05
27 *64:14 *217:12 0.000843855
28 *64:38 *4554:A1 0
29 *64:38 *162:35 0
30 *64:49 *4554:B1 0.0011904
31 *64:49 *4579:A1 7.49387e-06
32 *64:49 *4579:A2 0.000238326
33 *64:49 *4579:C1 7.11642e-05
34 *64:49 *87:43 2.89114e-05
35 *64:49 *104:8 0.000449539
36 *4561:B2 *4512:B 0.000173804
37 *62:38 *64:10 0.000353079
*RES
1 *4511:Y *64:10 20.0679 
2 *64:10 *64:14 12.4286 
3 *64:14 *4591:B 44.1571 
4 *64:14 *4547:B1 9.3 
5 *64:10 *64:38 6.75 
6 *64:38 *4579:B1 9.83571 
7 *64:38 *64:49 14.4107 
8 *64:49 *4512:B 22.675 
9 *64:49 *4593:B 11.4964 
*END

*D_NET *65 0.00518312
*CONN
*I *4513:B1 I *D sky130_fd_sc_hd__a22o_1
*I *4574:B2 I *D sky130_fd_sc_hd__a22o_1
*I *4530:A3 I *D sky130_fd_sc_hd__a32o_1
*I *4561:A1 I *D sky130_fd_sc_hd__a22o_1
*I *4512:X O *D sky130_fd_sc_hd__and2_4
*CAP
1 *4513:B1 0.000315935
2 *4574:B2 1.11927e-05
3 *4530:A3 0
4 *4561:A1 0
5 *4512:X 0.000120596
6 *65:36 0.000587909
7 *65:25 0.000852737
8 *65:12 0.000712551
9 *65:12 *4668:A 9.90431e-05
10 *65:25 *4561:A2 3.18676e-05
11 *65:25 *4664:A 0
12 *65:25 *4666:A 0.00123228
13 *65:25 *4669:A 0.000250193
14 *65:36 *4530:A1 0.000361914
15 *65:36 *4664:A 0.000109918
16 *4512:B *65:12 4.48113e-05
17 *62:18 *4513:B1 0.000274134
18 *62:18 *65:36 5.23142e-05
19 *62:22 *65:36 0.000125728
*RES
1 *4512:X *65:12 20.8893 
2 *65:12 *4561:A1 9.3 
3 *65:12 *65:25 25.0179 
4 *65:25 *4530:A3 9.3 
5 *65:25 *65:36 7.66071 
6 *65:36 *4574:B2 9.72857 
7 *65:36 *4513:B1 16.425 
*END

*D_NET *66 0.00033105
*CONN
*I *4581:B1 I *D sky130_fd_sc_hd__a311o_1
*I *4514:Y O *D sky130_fd_sc_hd__nor2_1
*CAP
1 *4581:B1 3.8086e-05
2 *4514:Y 3.8086e-05
3 *4581:B1 *193:38 0.000127439
4 *4581:B1 *235:25 0.000127439
*RES
1 *4514:Y *4581:B1 29.2429 
*END

*D_NET *67 0.0148624
*CONN
*I *4591:C I *D sky130_fd_sc_hd__and3_1
*I *4562:B I *D sky130_fd_sc_hd__or2_1
*I *4517:A2 I *D sky130_fd_sc_hd__o211a_1
*I *4543:A2 I *D sky130_fd_sc_hd__a21oi_1
*I *4515:Y O *D sky130_fd_sc_hd__nand2_2
*CAP
1 *4591:C 0.000531684
2 *4562:B 0.000557757
3 *4517:A2 7.58775e-05
4 *4543:A2 2.42204e-05
5 *4515:Y 0.000125893
6 *67:41 0.00176857
7 *67:22 0.00262141
8 *67:10 0.00211983
9 *4517:A2 *4528:C1 8.68665e-05
10 *4517:A2 *4529:B1 0.00017309
11 *4543:A2 *4543:A1 8.08022e-05
12 *4543:A2 *4545:A2 5.7616e-05
13 *4543:A2 *4577:A3 1.18064e-05
14 *4562:B *4528:C1 9.22701e-05
15 *4562:B *4529:B1 3.34366e-05
16 *4562:B *4550:B2 5.71472e-05
17 *4562:B *95:14 0.00032936
18 *4562:B *166:61 8.33655e-05
19 *4562:B *197:44 0.000129601
20 *4591:C *4506:A 0.000129175
21 *4591:C *4590:B2 0
22 *4591:C *4591:A 0.000107531
23 *4591:C *4592:A1 0
24 *4591:C *200:30 6.12668e-05
25 *67:10 *4506:A 6.19181e-05
26 *67:10 *161:36 0.000228508
27 *67:10 *163:50 5.49489e-05
28 *67:10 *235:33 9.38543e-05
29 *67:22 *4534:A 0.000139913
30 *67:22 *4577:A2 0.000446603
31 *67:22 *4577:A3 0.000872954
32 *67:22 *134:12 0.000836881
33 *67:22 *178:12 0.000230482
34 *67:22 *178:82 0.000139907
35 *67:22 *182:35 0.000177815
36 *67:41 *4529:A2 0.000648004
37 *67:41 *4542:A1 0.000235013
38 *67:41 *4542:A2 0.000784737
39 *67:41 *4543:B1 1.57414e-05
40 *67:41 *4545:A2 9.80173e-05
41 *67:41 *4577:A3 2.14757e-05
42 *67:41 *223:14 0.000500104
43 *4577:A1 *67:22 1.69961e-05
*RES
1 *4515:Y *67:10 17.6214 
2 *67:10 *67:22 30.7857 
3 *67:22 *4543:A2 19.3357 
4 *67:22 *67:41 28.1786 
5 *67:41 *4517:A2 16.05 
6 *67:41 *4562:B 25.1036 
7 *67:10 *4591:C 22.9607 
*END

*D_NET *68 0.0007334
*CONN
*I *4517:B1 I *D sky130_fd_sc_hd__o211a_1
*I *4516:Y O *D sky130_fd_sc_hd__nand2_1
*CAP
1 *4517:B1 9.9297e-05
2 *4516:Y 9.9297e-05
3 *4517:B1 *4523:A2 2.44318e-05
4 *4517:B1 *148:37 5.16637e-05
5 *4517:B1 *148:45 0.000192231
6 *4517:B1 *177:45 0.000266479
7 *4517:B1 *191:23 0
*RES
1 *4516:Y *4517:B1 22.0286 
*END

*D_NET *69 0.00141111
*CONN
*I *4523:A2 I *D sky130_fd_sc_hd__o22a_1
*I *4517:X O *D sky130_fd_sc_hd__o211a_1
*CAP
1 *4523:A2 0.000205797
2 *4517:X 0.000205797
3 *4523:A2 *148:45 5.52302e-05
4 *4523:A2 *158:106 0.000120114
5 *4523:A2 *178:82 5.62995e-05
6 *4523:A2 *182:41 0.000743439
7 *4517:B1 *4523:A2 2.44318e-05
*RES
1 *4517:X *4523:A2 25.7071 
*END

*D_NET *70 0.00143718
*CONN
*I *4522:A2 I *D sky130_fd_sc_hd__a32o_1
*I *4552:B I *D sky130_fd_sc_hd__nor2_2
*I *4518:Y O *D sky130_fd_sc_hd__nand2_1
*CAP
1 *4522:A2 0.000153198
2 *4552:B 0
3 *4518:Y 0.000286073
4 *70:8 0.00043927
5 *4522:A2 *4522:B1 1.1671e-05
6 *4522:A2 *184:6 0.00014285
7 *4522:A2 *184:21 0.00016834
8 *70:8 *4518:A 3.18676e-05
9 *70:8 *184:6 0.000203916
*RES
1 *4518:Y *70:8 15.1929 
2 *70:8 *4552:B 9.3 
3 *70:8 *4522:A2 13.1571 
*END

*D_NET *71 0.00621123
*CONN
*I *4565:A1 I *D sky130_fd_sc_hd__a21oi_1
*I *4553:A2 I *D sky130_fd_sc_hd__a211o_1
*I *4540:B I *D sky130_fd_sc_hd__or2_4
*I *4522:A3 I *D sky130_fd_sc_hd__a32o_1
*I *4519:X O *D sky130_fd_sc_hd__or3_4
*CAP
1 *4565:A1 0
2 *4553:A2 0.000200906
3 *4540:B 0
4 *4522:A3 0
5 *4519:X 0.000581824
6 *71:29 0.000574966
7 *71:25 0.00102284
8 *71:8 0.00123061
9 *4553:A2 *4528:C1 0.000125724
10 *4553:A2 *4529:A1 0.000115474
11 *4553:A2 *4553:C1 9.6087e-05
12 *4553:A2 *95:14 5.5671e-05
13 *4553:A2 *224:40 0.00022459
14 *71:8 *4521:A2 0
15 *71:8 *4522:A1 5.80706e-06
16 *71:8 *4522:B1 3.34672e-05
17 *71:8 *4524:A1 0
18 *71:8 *4524:B2 6.39901e-05
19 *71:8 *4551:A 6.8646e-06
20 *71:8 *4552:A 0
21 *71:8 *185:10 0.000140085
22 *71:8 *185:19 5.31541e-05
23 *71:8 *193:38 0
24 *71:8 *231:52 0
25 *71:25 *4492:A3 0
26 *71:25 *4522:A1 2.56276e-05
27 *71:25 *4523:B1 0.000265392
28 *71:25 *4524:A1 0
29 *71:25 *4524:A2 0
30 *71:25 *163:92 0.000608147
31 *71:25 *170:75 5.72433e-05
32 *71:29 *4516:B 0
33 *71:29 *4528:A2 0
34 *71:29 *4528:C1 0.000401887
35 *71:29 *4529:A1 3.34366e-05
36 *71:29 *4565:A2 5.31122e-05
37 *71:29 *148:51 0.00010177
38 *71:29 *158:35 7.6644e-05
39 *71:29 *166:61 0
40 *71:29 *177:45 4.78056e-05
41 *71:29 *186:16 8.10363e-06
42 *71:29 *193:47 0
*RES
1 *4519:X *71:8 25.1571 
2 *71:8 *4522:A3 13.8 
3 *71:8 *71:25 15.4107 
4 *71:25 *71:29 13.125 
5 *71:29 *4540:B 13.8 
6 *71:29 *4553:A2 19.2821 
7 *71:25 *4565:A1 9.3 
*END

*D_NET *72 0.00250974
*CONN
*I *4539:A1 I *D sky130_fd_sc_hd__o211a_1
*I *4558:B I *D sky130_fd_sc_hd__or4_1
*I *4520:Y O *D sky130_fd_sc_hd__nand2_1
*CAP
1 *4539:A1 0.000406749
2 *4558:B 0.000187609
3 *4520:Y 0.000594358
4 *4539:A1 *4520:B 0
5 *4539:A1 *4534:A 0.000165968
6 *4539:A1 *4534:C 2.23987e-05
7 *4539:A1 *4538:A1 0.000148189
8 *4539:A1 *4538:C1 0.000149911
9 *4539:A1 *4539:C1 0
10 *4539:A1 *4546:A2 2.89114e-05
11 *4539:A1 *4583:C1 3.69697e-05
12 *4539:A1 *161:36 0.000131347
13 *4539:A1 *223:34 2.44318e-05
14 *4539:A1 *223:45 0.000229456
15 *4539:A1 *235:31 1.39726e-05
16 *4558:B *4532:A1 0.000199698
17 *4558:B *4558:C 0
18 *4558:B *4558:D 2.88424e-05
19 *4558:B *128:14 0.000140933
*RES
1 *4520:Y *4558:B 31.5107 
2 *4520:Y *4539:A1 36.35 
*END

*D_NET *73 0.000368193
*CONN
*I *4522:B1 I *D sky130_fd_sc_hd__a32o_1
*I *4521:X O *D sky130_fd_sc_hd__o41a_1
*CAP
1 *4522:B1 0.000101253
2 *4521:X 0.000101253
3 *4522:B1 *4537:B 1.72894e-05
4 *4522:B1 *193:38 0.00010326
5 *4522:A2 *4522:B1 1.1671e-05
6 *71:8 *4522:B1 3.34672e-05
*RES
1 *4521:X *4522:B1 29.7161 
*END

*D_NET *74 0.00159344
*CONN
*I *4523:B1 I *D sky130_fd_sc_hd__o22a_1
*I *4522:X O *D sky130_fd_sc_hd__a32o_1
*CAP
1 *4523:B1 0.000479705
2 *4522:X 0.000479705
3 *4523:B1 *4522:A1 0.000272541
4 *4523:B1 *170:75 0
5 *4523:B1 *184:21 9.60939e-05
6 *71:25 *4523:B1 0.000265392
*RES
1 *4522:X *4523:B1 37.475 
*END

*D_NET *75 0.00171489
*CONN
*I *4529:A2 I *D sky130_fd_sc_hd__o21ai_1
*I *4523:X O *D sky130_fd_sc_hd__o22a_1
*CAP
1 *4529:A2 0.000513803
2 *4523:X 0.000513803
3 *4529:A2 *170:75 3.92757e-05
4 *67:41 *4529:A2 0.000648004
*RES
1 *4523:X *4529:A2 34.9214 
*END

*D_NET *76 0.00131861
*CONN
*I *4528:A2 I *D sky130_fd_sc_hd__o211ai_1
*I *4524:X O *D sky130_fd_sc_hd__o22a_1
*CAP
1 *4528:A2 0.000457419
2 *4524:X 0.000457419
3 *4528:A2 *4516:B 0.000186662
4 *4528:A2 *4528:A1 1.02936e-05
5 *4528:A2 *4553:B1 6.05161e-06
6 *4528:A2 *4565:A2 0
7 *4528:A2 *158:12 5.26184e-05
8 *4528:A2 *158:23 6.8646e-06
9 *4528:A2 *193:47 0.000141284
10 *71:29 *4528:A2 0
*RES
1 *4524:X *4528:A2 35.6714 
*END

*D_NET *77 0.000420362
*CONN
*I *4527:C_N I *D sky130_fd_sc_hd__or3b_1
*I *4525:X O *D sky130_fd_sc_hd__or4_1
*CAP
1 *4527:C_N 9.57272e-05
2 *4525:X 9.57272e-05
3 *4527:C_N *4521:B1 0.000161417
4 *4527:C_N *4565:B1 6.74911e-05
*RES
1 *4525:X *4527:C_N 30.1893 
*END

*D_NET *78 0.000321028
*CONN
*I *4527:A I *D sky130_fd_sc_hd__or3b_1
*I *4526:Y O *D sky130_fd_sc_hd__a21oi_1
*CAP
1 *4527:A 4.68372e-05
2 *4526:Y 4.68372e-05
3 *4527:A *4528:B1 7.83659e-05
4 *4527:A *166:29 2.39779e-05
5 *4527:A *191:10 0.00012501
*RES
1 *4526:Y *4527:A 29.2429 
*END

*D_NET *79 0.00206398
*CONN
*I *4528:B1 I *D sky130_fd_sc_hd__o211ai_1
*I *4527:X O *D sky130_fd_sc_hd__or3b_1
*CAP
1 *4528:B1 0.000384017
2 *4527:X 0.000384017
3 *4528:B1 *4516:B 6.57815e-05
4 *4528:B1 *4528:C1 5.71472e-05
5 *4528:B1 *161:97 0.000164332
6 *4528:B1 *166:29 0.000101545
7 *4528:B1 *166:61 0.000424931
8 *4528:B1 *191:10 0.000221149
9 *4528:B1 *233:22 0.000182694
10 *4527:A *4528:B1 7.83659e-05
*RES
1 *4527:X *4528:B1 37.9393 
*END

*D_NET *80 0.000833395
*CONN
*I *4529:B1 I *D sky130_fd_sc_hd__o21ai_1
*I *4528:Y O *D sky130_fd_sc_hd__o211ai_1
*CAP
1 *4529:B1 0.000139044
2 *4528:Y 0.000139044
3 *4529:B1 *4528:C1 3.4323e-05
4 *4529:B1 *166:61 0.000314458
5 *4517:A2 *4529:B1 0.00017309
6 *4562:B *4529:B1 3.34366e-05
*RES
1 *4528:Y *4529:B1 31.6714 
*END

*D_NET *81 0.00219724
*CONN
*I *4530:B1 I *D sky130_fd_sc_hd__a32o_1
*I *4529:Y O *D sky130_fd_sc_hd__o21ai_1
*CAP
1 *4530:B1 0.000664954
2 *4529:Y 0.000664954
3 *4530:B1 *4530:A2 9.49429e-05
4 *4530:B1 *4571:A2 0.00014183
5 *4530:B1 *4669:A 0
6 *4530:B1 *166:61 0.000366752
7 *4530:B2 *4530:B1 9.90431e-05
8 *62:22 *4530:B1 0.000164762
*RES
1 *4529:Y *4530:B1 41.5732 
*END

*D_NET *82 0.0022362
*CONN
*I *4542:A1 I *D sky130_fd_sc_hd__a31o_1
*I *4535:B1 I *D sky130_fd_sc_hd__o21a_1
*I *4531:X O *D sky130_fd_sc_hd__or2_1
*CAP
1 *4542:A1 0.000118179
2 *4535:B1 0.000197784
3 *4531:X 0
4 *82:6 0.000315964
5 *4535:B1 *4531:A 2.26424e-05
6 *4535:B1 *4535:A1 9.60875e-05
7 *4535:B1 *87:43 0.000240491
8 *4535:B1 *162:24 7.83659e-05
9 *4535:B1 *163:69 0.00018372
10 *4535:B1 *177:45 0.00018077
11 *4535:B1 *177:49 1.5424e-05
12 *4535:B1 *183:23 0.000102474
13 *4535:B1 *223:34 9.60939e-05
14 *4535:B1 *235:25 7.25207e-05
15 *4542:A1 *4542:A2 3.18676e-05
16 *4542:A1 *4543:B1 5.56825e-05
17 *4542:A1 *87:43 0.000100823
18 *4542:A1 *162:24 9.22948e-05
19 *67:41 *4542:A1 0.000235013
*RES
1 *4531:X *82:6 13.8 
2 *82:6 *4535:B1 20.7821 
3 *82:6 *4542:A1 17.7464 
*END

*D_NET *83 0.00101532
*CONN
*I *4534:B I *D sky130_fd_sc_hd__nand3_1
*I *4575:A1 I *D sky130_fd_sc_hd__a21o_1
*I *4532:Y O *D sky130_fd_sc_hd__o21ai_1
*CAP
1 *4534:B 9.14182e-05
2 *4575:A1 0
3 *4532:Y 0.000135422
4 *83:10 0.00022684
5 *4534:B *4534:C 0.000173797
6 *4534:B *84:10 1.02504e-05
7 *4534:B *161:36 5.821e-05
8 *4534:B *178:12 5.49257e-05
9 *4534:B *235:33 5.52302e-05
10 *83:10 *84:10 0.000148196
11 *83:10 *134:12 0
12 *83:10 *178:12 5.80706e-06
13 *83:10 *223:45 5.52238e-05
*RES
1 *4532:Y *83:10 16.2821 
2 *83:10 *4575:A1 13.8 
3 *83:10 *4534:B 16.5857 
*END

*D_NET *84 0.00239867
*CONN
*I *4534:C I *D sky130_fd_sc_hd__nand3_1
*I *4575:A2 I *D sky130_fd_sc_hd__a21o_1
*I *4533:X O *D sky130_fd_sc_hd__a211o_1
*CAP
1 *4534:C 0.000129018
2 *4575:A2 0
3 *4533:X 0.000342337
4 *84:10 0.000471355
5 *4534:C *4538:C1 1.02504e-05
6 *4534:C *161:36 7.83587e-05
7 *4534:C *178:12 5.7616e-05
8 *4534:C *235:33 9.41642e-05
9 *84:10 *4532:A2 0.000177705
10 *84:10 *4538:C1 0.000314732
11 *84:10 *4583:B1 6.71264e-05
12 *84:10 *4583:B2 6.92626e-05
13 *84:10 *4587:A1 1.92905e-05
14 *84:10 *4587:A2 5.03772e-05
15 *84:10 *134:12 0
16 *84:10 *197:68 7.48301e-06
17 *84:10 *228:46 6.05161e-06
18 *84:10 *243:56 0.000148903
19 *4534:B *4534:C 0.000173797
20 *4534:B *84:10 1.02504e-05
21 *4539:A1 *4534:C 2.23987e-05
22 *83:10 *84:10 0.000148196
*RES
1 *4533:X *84:10 22.3714 
2 *84:10 *4575:A2 13.8 
3 *84:10 *4534:C 26.1214 
*END

*D_NET *85 0.00104599
*CONN
*I *4539:C1 I *D sky130_fd_sc_hd__o211a_1
*I *4534:Y O *D sky130_fd_sc_hd__nand3_1
*CAP
1 *4539:C1 0.000376561
2 *4534:Y 0.000376561
3 *4539:C1 *4534:A 6.27272e-06
4 *4539:C1 *4539:A2 0.000120909
5 *4539:C1 *161:36 2.09826e-05
6 *4539:C1 *161:59 2.28188e-05
7 *4539:C1 *178:82 5.92185e-05
8 *4539:C1 *235:31 4.31755e-05
9 *4538:B1 *4539:C1 1.94945e-05
10 *4539:A1 *4539:C1 0
*RES
1 *4534:Y *4539:C1 37.6143 
*END

*D_NET *86 0.0030693
*CONN
*I *4539:A2 I *D sky130_fd_sc_hd__o211a_1
*I *4535:X O *D sky130_fd_sc_hd__o21a_1
*CAP
1 *4539:A2 0.000990508
2 *4535:X 0.000990508
3 *4539:A2 *4534:A 3.50575e-06
4 *4539:A2 *4539:B1 1.9096e-05
5 *4539:A2 *4547:A2 0
6 *4539:A2 *161:59 0.000514588
7 *4539:A2 *178:82 0.000150667
8 *4539:A2 *182:41 0.00013727
9 *4539:A2 *235:31 0.00014225
10 *4539:C1 *4539:A2 0.000120909
*RES
1 *4535:X *4539:A2 38.6169 
*END

*D_NET *87 0.0131484
*CONN
*I *4579:A2 I *D sky130_fd_sc_hd__o211a_1
*I *4589:B1 I *D sky130_fd_sc_hd__o221a_1
*I *4554:A2 I *D sky130_fd_sc_hd__o21ai_1
*I *4581:A3 I *D sky130_fd_sc_hd__a311o_1
*I *4536:X O *D sky130_fd_sc_hd__a21bo_4
*CAP
1 *4579:A2 0.000202937
2 *4589:B1 0.000751936
3 *4554:A2 0.000202937
4 *4581:A3 1.16062e-05
5 *4536:X 0.000271063
6 *87:43 0.00114519
7 *87:18 0.00249543
8 *87:10 0.00236163
9 *4579:A2 *4579:A1 2.78584e-05
10 *4581:A3 *4490:A2 5.52302e-05
11 *4581:A3 *243:16 5.52302e-05
12 *4589:B1 *4536:A1 4.80729e-05
13 *4589:B1 *4586:A1 0.000200269
14 *4589:B1 *4589:B2 1.3701e-05
15 *4589:B1 *4589:C1 0.000184151
16 *4589:B1 *161:18 0
17 *4589:B1 *223:75 0.000137678
18 *4589:B1 *243:68 2.47724e-05
19 *87:10 *4536:A1 0.000324167
20 *87:18 *4532:A2 2.89016e-05
21 *87:18 *4537:A 0.000127439
22 *87:18 *4581:A2 4.46186e-06
23 *87:18 *4587:B1 0.000398822
24 *87:18 *88:12 0.000309881
25 *87:18 *157:41 8.87196e-05
26 *87:18 *164:45 0.000117388
27 *87:18 *227:16 1.21289e-05
28 *87:18 *227:18 0.000512945
29 *87:18 *235:25 0
30 *87:18 *243:12 6.8646e-06
31 *87:43 *4490:A2 2.44318e-05
32 *87:43 *4542:A3 6.32633e-05
33 *87:43 *4542:B1 0
34 *87:43 *4543:B1 0
35 *87:43 *4545:B1 0.00012401
36 *87:43 *4554:A1 2.61337e-05
37 *87:43 *4555:A 0.000551986
38 *87:43 *4555:B 0
39 *87:43 *4559:A2 0.000121101
40 *87:43 *4559:B1 0.000313458
41 *87:43 *4576:A1 4.41105e-05
42 *87:43 *4576:B1 1.21955e-05
43 *87:43 *4579:C1 5.52302e-05
44 *87:43 *4581:A2 3.69697e-05
45 *87:43 *4637:A 7.83366e-05
46 *87:43 *128:14 1.02504e-05
47 *87:43 *161:97 0.00010326
48 *87:43 *162:18 0
49 *87:43 *162:24 6.78336e-05
50 *87:43 *162:35 5.84171e-05
51 *87:43 *164:45 1.17968e-05
52 *87:43 *164:74 2.26424e-05
53 *87:43 *165:8 0
54 *87:43 *197:68 0.00060785
55 *87:43 *235:25 6.15146e-05
56 *4535:B1 *87:43 0.000240491
57 *4542:A1 *87:43 0.000100823
58 *4579:B1 *4579:A2 2.36164e-05
59 *64:49 *4579:A2 0.000238326
60 *64:49 *87:43 2.89114e-05
*RES
1 *4536:X *87:10 19.6393 
2 *87:10 *87:18 36.625 
3 *87:18 *4581:A3 14.3357 
4 *87:18 *87:43 41.6964 
5 *87:43 *4554:A2 9.3 
6 *87:10 *4589:B1 28.7464 
7 *4554:A2 *4579:A2 22.475 
*END

*D_NET *88 0.00481292
*CONN
*I *4538:C1 I *D sky130_fd_sc_hd__a311o_1
*I *4583:B1 I *D sky130_fd_sc_hd__a221o_1
*I *4537:Y O *D sky130_fd_sc_hd__nor2_1
*CAP
1 *4538:C1 0.000115811
2 *4583:B1 3.77905e-05
3 *4537:Y 0.00132973
4 *88:12 0.00148333
5 *4538:C1 *4583:C1 5.91379e-05
6 *4583:B1 *4583:B2 1.02504e-05
7 *88:12 *4537:B 7.43578e-06
8 *88:12 *4583:B2 0.00021682
9 *88:12 *4583:C1 6.95627e-05
10 *88:12 *4587:B1 0.000106217
11 *88:12 *129:10 5.10922e-05
12 *88:12 *227:16 0.000353086
13 *88:12 *243:22 1.75989e-05
14 *88:12 *243:39 0.000103155
15 *4534:C *4538:C1 1.02504e-05
16 *4539:A1 *4538:C1 0.000149911
17 *84:10 *4538:C1 0.000314732
18 *84:10 *4583:B1 6.71264e-05
19 *87:18 *88:12 0.000309881
*RES
1 *4537:Y *88:12 34.7911 
2 *88:12 *4583:B1 14.6839 
3 *88:12 *4538:C1 18.0232 
*END

*D_NET *89 0.00043655
*CONN
*I *4539:B1 I *D sky130_fd_sc_hd__o211a_1
*I *4538:X O *D sky130_fd_sc_hd__a311o_1
*CAP
1 *4539:B1 0.000130131
2 *4538:X 0.000130131
3 *4539:B1 *4534:A 6.65731e-06
4 *4539:B1 *4538:A2 4.46186e-06
5 *4539:B1 *161:59 2.86754e-05
6 *4539:B1 *178:82 6.59012e-07
7 *4539:B1 *235:31 7.13226e-06
8 *4538:B1 *4539:B1 0.000109606
9 *4539:A2 *4539:B1 1.9096e-05
*RES
1 *4538:X *4539:B1 29.9259 
*END

*D_NET *90 0.00106224
*CONN
*I *4546:A2 I *D sky130_fd_sc_hd__o22a_1
*I *4539:X O *D sky130_fd_sc_hd__o211a_1
*CAP
1 *4546:A2 0.000324813
2 *4539:X 0.000324813
3 *4546:A2 *4546:B1 2.05938e-05
4 *4546:A2 *4577:B1 0.000150625
5 *4546:A2 *178:12 0
6 *4546:A2 *178:82 3.69697e-05
7 *4546:A2 *189:32 0.000166269
8 *4538:B1 *4546:A2 0
9 *4539:A1 *4546:A2 2.89114e-05
10 *4591:B *4546:A2 9.25014e-06
*RES
1 *4539:X *4546:A2 34.0286 
*END

*D_NET *91 0.00527712
*CONN
*I *4571:A2 I *D sky130_fd_sc_hd__a32o_1
*I *4542:A2 I *D sky130_fd_sc_hd__a31o_1
*I *4540:X O *D sky130_fd_sc_hd__or2_4
*CAP
1 *4571:A2 0.000692064
2 *4542:A2 0.000342683
3 *4540:X 0.00103475
4 *4542:A2 *4543:B1 0.00014285
5 *4542:A2 *4559:B1 4.27437e-05
6 *4542:A2 *148:62 0.00127316
7 *4542:A2 *223:14 0.000139913
8 *4571:A2 *4529:A1 5.22045e-05
9 *4571:A2 *4571:B1 2.39852e-05
10 *4571:A2 *4687:A 0.00030477
11 *4571:A2 *148:62 6.11433e-05
12 *4571:A2 *223:14 0.000208418
13 *4530:B1 *4571:A2 0.00014183
14 *4542:A1 *4542:A2 3.18676e-05
15 *67:41 *4542:A2 0.000784737
*RES
1 *4540:X *4542:A2 34.3321 
2 *4540:X *4571:A2 31.6 
*END

*D_NET *92 0.000367108
*CONN
*I *4542:A3 I *D sky130_fd_sc_hd__a31o_1
*I *4541:X O *D sky130_fd_sc_hd__a21o_1
*CAP
1 *4542:A3 0.000103649
2 *4541:X 0.000103649
3 *4542:A3 *4542:B1 3.93986e-05
4 *4542:A3 *182:41 5.71472e-05
5 *87:43 *4542:A3 6.32633e-05
*RES
1 *4541:X *4542:A3 29.7786 
*END

*D_NET *93 0.000643218
*CONN
*I *4545:B1 I *D sky130_fd_sc_hd__o31a_1
*I *4542:X O *D sky130_fd_sc_hd__a31o_1
*CAP
1 *4545:B1 0.000120345
2 *4542:X 0.000120345
3 *4545:B1 *4543:B1 5.52238e-05
4 *4545:B1 *4545:A3 4.87854e-05
5 *4545:B1 *162:24 0.000125724
6 *4545:B1 *224:40 4.87854e-05
7 *87:43 *4545:B1 0.00012401
*RES
1 *4542:X *4545:B1 30.725 
*END

*D_NET *94 0.000671378
*CONN
*I *4545:A2 I *D sky130_fd_sc_hd__o31a_1
*I *4543:Y O *D sky130_fd_sc_hd__a21oi_1
*CAP
1 *4545:A2 0.000147637
2 *4543:Y 0.000147637
3 *4545:A2 *4543:A1 1.17968e-05
4 *4545:A2 *4543:B1 5.30637e-06
5 *4545:A2 *4547:A2 5.16489e-05
6 *4545:A2 *4577:A3 8.50152e-05
7 *4545:A2 *162:24 6.67033e-05
8 *4543:A2 *4545:A2 5.7616e-05
9 *67:41 *4545:A2 9.80173e-05
*RES
1 *4543:Y *4545:A2 31.4036 
*END

*D_NET *95 0.0108145
*CONN
*I *4555:A I *D sky130_fd_sc_hd__xnor2_1
*I *4545:A3 I *D sky130_fd_sc_hd__o31a_1
*I *4544:Y O *D sky130_fd_sc_hd__a21oi_2
*CAP
1 *4555:A 0.000168129
2 *4545:A3 7.97817e-05
3 *4544:Y 0.000281185
4 *95:14 0.00266703
5 *95:12 0.0027003
6 *4545:A3 *224:40 1.32552e-05
7 *4555:A *162:24 0.000525377
8 *4555:A *162:35 3.34366e-05
9 *95:12 *4481:B1 0
10 *95:12 *4500:A1 0.000222885
11 *95:12 *4507:B2 0
12 *95:12 *4544:A1 5.83304e-05
13 *95:12 *4563:A1 0.000344217
14 *95:12 *4573:A 0
15 *95:12 *148:29 1.58163e-05
16 *95:12 *224:12 0
17 *95:14 *4550:B2 7.3237e-05
18 *95:14 *4553:C1 0.000227539
19 *95:14 *4560:A3 5.71472e-05
20 *95:14 *4563:A2 3.69047e-06
21 *95:14 *4563:A3 3.48705e-05
22 *95:14 *4564:A1 0.000227539
23 *95:14 *4564:A2 1.69961e-05
24 *95:14 *4564:B1 0.000962497
25 *95:14 *4572:A2 0.000270326
26 *95:14 *197:44 0.000131918
27 *95:14 *224:40 0.000479517
28 *95:14 *245:86 0.00023366
29 *4545:B1 *4545:A3 4.87854e-05
30 *4553:A2 *95:14 5.5671e-05
31 *4562:B *95:14 0.00032936
32 *87:43 *4555:A 0.000551986
*RES
1 *4544:Y *95:12 25.0321 
2 *95:12 *95:14 47.3571 
3 *95:14 *4545:A3 10.6571 
4 *95:14 *4555:A 25.4071 
*END

*D_NET *96 0.00298263
*CONN
*I *4546:B1 I *D sky130_fd_sc_hd__o22a_1
*I *4545:X O *D sky130_fd_sc_hd__o31a_1
*CAP
1 *4546:B1 0.00124864
2 *4545:X 0.00124864
3 *4546:B1 *189:45 4.87995e-05
4 *4546:B1 *224:44 0.00037667
5 *4546:A2 *4546:B1 2.05938e-05
6 *4591:B *4546:B1 3.92854e-05
*RES
1 *4545:X *4546:B1 44.0464 
*END

*D_NET *97 0.00135706
*CONN
*I *4548:S I *D sky130_fd_sc_hd__mux2_1
*I *4546:X O *D sky130_fd_sc_hd__o22a_1
*CAP
1 *4548:S 0.000512877
2 *4546:X 0.000512877
3 *4548:S *217:10 0.000100831
4 *4548:A0 *4548:S 0.000230475
5 *4591:B *4548:S 0
6 *4592:A0 *4548:S 0
*RES
1 *4546:X *4548:S 37.4036 
*END

*D_NET *98 0.00246204
*CONN
*I *4548:A1 I *D sky130_fd_sc_hd__mux2_1
*I *4547:X O *D sky130_fd_sc_hd__o21a_1
*CAP
1 *4548:A1 0.000774323
2 *4547:X 0.000774323
3 *4548:A1 *217:12 0.000835027
4 *4592:A0 *4548:A1 7.83659e-05
*RES
1 *4547:X *4548:A1 38.6179 
*END

*D_NET *99 0.00203333
*CONN
*I *4593:C I *D sky130_fd_sc_hd__and3_1
*I *4550:B1 I *D sky130_fd_sc_hd__a221o_1
*I *4549:Y O *D sky130_fd_sc_hd__nand2_1
*CAP
1 *4593:C 0.000459393
2 *4550:B1 0.000198405
3 *4549:Y 0.000119433
4 *99:8 0.000777232
5 *4550:B1 *4529:A1 0
6 *4550:B1 *4560:A3 5.48581e-05
7 *4550:B1 *170:75 0
8 *4593:C *4554:B1 0
9 *4593:C *170:75 0
10 *99:8 *189:12 0.000186662
11 *62:26 *4593:C 0.000237345
*RES
1 *4549:Y *99:8 15.5679 
2 *99:8 *4550:B1 17.5679 
3 *99:8 *4593:C 20.4696 
*END

*D_NET *100 0.000449025
*CONN
*I *4560:A2 I *D sky130_fd_sc_hd__a32o_1
*I *4550:X O *D sky130_fd_sc_hd__a221o_1
*CAP
1 *4560:A2 9.07133e-05
2 *4550:X 9.07133e-05
3 *4560:A2 *4560:A3 0.00010326
4 *4560:A2 *4560:B1 6.1079e-05
5 *4560:A2 *170:75 0.00010326
*RES
1 *4550:X *4560:A2 29.8857 
*END

*D_NET *101 0.00073318
*CONN
*I *4565:A2 I *D sky130_fd_sc_hd__a21oi_1
*I *4551:Y O *D sky130_fd_sc_hd__nand2_1
*CAP
1 *4565:A2 0.000337803
2 *4551:Y 0.000337803
3 *4565:A2 *4521:B1 4.46186e-06
4 *4565:A2 *4565:B1 0
5 *4528:A2 *4565:A2 0
6 *71:29 *4565:A2 5.31122e-05
*RES
1 *4551:Y *4565:A2 32.6179 
*END

*D_NET *102 0.0122211
*CONN
*I *4553:B1 I *D sky130_fd_sc_hd__a211o_1
*I *4578:A2 I *D sky130_fd_sc_hd__o21a_1
*I *4558:C I *D sky130_fd_sc_hd__or4_1
*I *4552:Y O *D sky130_fd_sc_hd__nor2_2
*CAP
1 *4553:B1 0.00070127
2 *4578:A2 0.000359997
3 *4558:C 0.000139238
4 *4552:Y 0.000455325
5 *102:14 0.00204532
6 *102:10 0.00270268
7 *4553:B1 *4516:B 0.000195547
8 *4553:B1 *4528:A1 0.000167436
9 *4553:B1 *4529:A1 0
10 *4553:B1 *4550:A1 5.80706e-06
11 *4553:B1 *148:51 6.81459e-05
12 *4553:B1 *193:47 0.000283204
13 *4553:B1 *223:20 0.000343598
14 *4553:B1 *223:22 0.000318896
15 *4553:B1 *224:40 2.84494e-05
16 *4558:C *4520:B 7.83366e-05
17 *4558:C *4532:A1 0
18 *4558:C *4558:D 3.51442e-05
19 *4558:C *4587:B1 0.000342488
20 *4578:A2 *4510:A 0.00018529
21 *4578:A2 *4510:B 0.000363238
22 *4578:A2 *4520:B 5.84171e-05
23 *4578:A2 *4587:B1 0.00044416
24 *4578:A2 *177:66 0.000263366
25 *4578:A2 *189:28 0.000141975
26 *4578:A2 *221:12 0.000268396
27 *4578:A2 *224:46 0.000168698
28 *102:10 *4492:B1 0
29 *102:10 *4522:A1 0
30 *102:10 *4522:B2 0
31 *102:10 *4552:A 0
32 *102:10 *193:38 0
33 *102:14 *183:23 0.00189897
34 *102:14 *223:22 0.000151619
35 *4528:A2 *4553:B1 6.05161e-06
36 *4558:B *4558:C 0
*RES
1 *4552:Y *102:10 25.1036 
2 *102:10 *102:14 26.3929 
3 *102:14 *4558:C 18.175 
4 *102:14 *4578:A2 26.8357 
5 *102:10 *4553:B1 34.9071 
*END

*D_NET *103 0.000792361
*CONN
*I *4560:A3 I *D sky130_fd_sc_hd__a32o_1
*I *4553:X O *D sky130_fd_sc_hd__a211o_1
*CAP
1 *4560:A3 0.000158783
2 *4553:X 0.000158783
3 *4560:A3 *4529:A1 0
4 *4560:A3 *170:75 0.00011062
5 *4560:A3 *197:44 0.000148911
6 *4550:B1 *4560:A3 5.48581e-05
7 *4560:A2 *4560:A3 0.00010326
8 *95:14 *4560:A3 5.71472e-05
*RES
1 *4553:X *4560:A3 32.2071 
*END

*D_NET *104 0.0035082
*CONN
*I *4561:A2 I *D sky130_fd_sc_hd__a22o_1
*I *4555:B I *D sky130_fd_sc_hd__xnor2_1
*I *4554:Y O *D sky130_fd_sc_hd__o21ai_1
*CAP
1 *4561:A2 0.000685657
2 *4555:B 0.000367165
3 *4554:Y 0.000279828
4 *104:8 0.00133265
5 *4555:B *4579:C1 5.10822e-05
6 *4555:B *165:8 4.02462e-05
7 *4555:B *217:12 0.000216862
8 *4561:B2 *4561:A2 5.33005e-05
9 *64:49 *104:8 0.000449539
10 *65:25 *4561:A2 3.18676e-05
11 *87:43 *4555:B 0
*RES
1 *4554:Y *104:8 18.0321 
2 *104:8 *4555:B 21.0857 
3 *104:8 *4561:A2 25.0321 
*END

*D_NET *105 0.000799535
*CONN
*I *4559:A2 I *D sky130_fd_sc_hd__o211ai_1
*I *4555:Y O *D sky130_fd_sc_hd__xnor2_1
*CAP
1 *4559:A2 0.000237298
2 *4555:Y 0.000237298
3 *4559:A2 *4559:B1 3.07555e-05
4 *4559:A2 *165:8 0
5 *4511:C *4559:A2 0.000173083
6 *87:43 *4559:A2 0.000121101
*RES
1 *4555:Y *4559:A2 32.8857 
*END

*D_NET *106 0.0013685
*CONN
*I *4559:B1 I *D sky130_fd_sc_hd__o211ai_1
*I *4556:X O *D sky130_fd_sc_hd__a31o_1
*CAP
1 *4559:B1 0.000375535
2 *4556:X 0.000375535
3 *4559:B1 *4543:B1 0.000230475
4 *4559:B1 *165:8 0
5 *4542:A2 *4559:B1 4.27437e-05
6 *4559:A2 *4559:B1 3.07555e-05
7 *87:43 *4559:B1 0.000313458
*RES
1 *4556:X *4559:B1 34.6714 
*END

*D_NET *107 0.000277166
*CONN
*I *4558:D I *D sky130_fd_sc_hd__or4_1
*I *4557:Y O *D sky130_fd_sc_hd__a21oi_1
*CAP
1 *4558:D 7.78614e-05
2 *4557:Y 7.78614e-05
3 *4558:D *4532:A1 0
4 *4558:D *4587:B1 5.74562e-05
5 *4558:B *4558:D 2.88424e-05
6 *4558:C *4558:D 3.51442e-05
*RES
1 *4557:Y *4558:D 29.5464 
*END

*D_NET *108 0.0045219
*CONN
*I *4559:C1 I *D sky130_fd_sc_hd__o211ai_1
*I *4558:X O *D sky130_fd_sc_hd__or4_1
*CAP
1 *4559:C1 0
2 *4558:X 0.000883791
3 *108:12 0.000883791
4 *108:12 *4510:A 6.95299e-05
5 *108:12 *4587:B1 0.000186779
6 *108:12 *161:59 1.61405e-05
7 *108:12 *182:35 5.10822e-05
8 *108:12 *189:28 0.0011836
9 *108:12 *221:12 0.0011836
10 *108:12 *224:46 6.35892e-05
*RES
1 *4558:X *108:12 43.3 
2 *108:12 *4559:C1 9.3 
*END

*D_NET *109 0.00360419
*CONN
*I *4560:B1 I *D sky130_fd_sc_hd__a32o_1
*I *4559:Y O *D sky130_fd_sc_hd__o211ai_1
*CAP
1 *4560:B1 0.000917331
2 *4559:Y 0.000917331
3 *4560:B1 *4511:A 0.0001744
4 *4560:B1 *4560:A1 6.67723e-05
5 *4560:B1 *4561:B1 0.000313235
6 *4560:B1 *165:8 6.74911e-05
7 *4560:B1 *189:28 8.18783e-05
8 *4560:A2 *4560:B1 6.1079e-05
9 *62:32 *4560:B1 0.000843861
10 *63:43 *4560:B1 0.000160816
*RES
1 *4559:Y *4560:B1 47.5554 
*END

*D_NET *110 0.00210008
*CONN
*I *4561:B1 I *D sky130_fd_sc_hd__a22o_1
*I *4560:X O *D sky130_fd_sc_hd__a32o_1
*CAP
1 *4561:B1 0.000408364
2 *4560:X 0.000408364
3 *4561:B1 *189:28 0.000200413
4 *4561:B1 *189:76 0.000187726
5 *4560:B1 *4561:B1 0.000313235
6 *4561:B2 *4561:B1 0.000218734
7 *62:32 *4561:B1 0.000363245
*RES
1 *4560:X *4561:B1 38.6179 
*END

*D_NET *111 0.000272522
*CONN
*I *4571:A3 I *D sky130_fd_sc_hd__a32o_1
*I *4562:X O *D sky130_fd_sc_hd__or2_1
*CAP
1 *4571:A3 5.17342e-05
2 *4562:X 5.17342e-05
3 *4571:A3 *4572:A3 0
4 *4571:A3 *4572:B1 8.00806e-05
5 *4571:A3 *162:105 8.89733e-05
*RES
1 *4562:X *4571:A3 29.2429 
*END

*D_NET *112 0.00188878
*CONN
*I *4564:B1 I *D sky130_fd_sc_hd__a31o_1
*I *4563:X O *D sky130_fd_sc_hd__a31o_1
*CAP
1 *4564:B1 0.000180645
2 *4563:X 0.000180645
3 *4564:B1 *4563:A3 0.000468903
4 *4564:B1 *4564:A2 9.60875e-05
5 *95:14 *4564:B1 0.000962497
*RES
1 *4563:X *4564:B1 27.7607 
*END

*D_NET *113 0.000983073
*CONN
*I *4572:A2 I *D sky130_fd_sc_hd__a32o_1
*I *4564:X O *D sky130_fd_sc_hd__a31o_1
*CAP
1 *4572:A2 0.000244749
2 *4564:X 0.000244749
3 *4572:A2 *4572:A3 0.000148189
4 *4572:A2 *4572:B1 7.50601e-05
5 *95:14 *4572:A2 0.000270326
*RES
1 *4564:X *4572:A2 32.1357 
*END

*D_NET *114 0.00347543
*CONN
*I *4566:C1 I *D sky130_fd_sc_hd__a311o_1
*I *4565:Y O *D sky130_fd_sc_hd__a21oi_1
*CAP
1 *4566:C1 0.00117262
2 *4565:Y 0.00117262
3 *4566:C1 *4473:A3 0.000522445
4 *4566:C1 *4565:B1 3.67142e-05
5 *4566:C1 *161:110 0.000314658
6 *4566:C1 *167:10 2.89016e-05
7 *4566:C1 *186:16 7.28047e-05
8 *4566:C1 *197:10 7.8327e-05
9 *4566:C1 *245:69 7.63413e-05
*RES
1 *4565:Y *4566:C1 44.4571 
*END

*D_NET *115 0.00169351
*CONN
*I *4572:A3 I *D sky130_fd_sc_hd__a32o_1
*I *4566:X O *D sky130_fd_sc_hd__a311o_1
*CAP
1 *4572:A3 0.000401971
2 *4566:X 0.000401971
3 *4572:A3 *4473:B1 0.000144038
4 *4572:A3 *4504:A1 0
5 *4572:A3 *4516:B 5.52302e-05
6 *4572:A3 *4563:A3 0.000482149
7 *4572:A3 *4572:B1 5.99631e-05
8 *4572:A3 *162:105 0
9 *4572:A3 *245:80 0
10 *4571:A3 *4572:A3 0
11 *4572:A2 *4572:A3 0.000148189
*RES
1 *4566:X *4572:A3 37.3679 
*END

*D_NET *116 0.00156132
*CONN
*I *4570:A3 I *D sky130_fd_sc_hd__a32o_1
*I *4567:X O *D sky130_fd_sc_hd__a21o_1
*CAP
1 *4570:A3 0.000343586
2 *4567:X 0.000343586
3 *4570:A3 *4570:B1 0.000304557
4 *4570:A3 *4570:B2 0
5 *4570:A3 *166:41 0.000192219
6 *4570:A3 *170:49 8.88074e-05
7 *4570:A3 *197:10 0.000288564
*RES
1 *4567:X *4570:A3 35.6357 
*END

*D_NET *117 0.00158034
*CONN
*I *4570:B1 I *D sky130_fd_sc_hd__a32o_1
*I *4568:X O *D sky130_fd_sc_hd__or4_1
*CAP
1 *4570:B1 0.000438323
2 *4568:X 0.000438323
3 *4570:B1 *4570:A1 9.54798e-06
4 *4570:B1 *149:22 0.000101545
5 *4570:B1 *170:49 3.33238e-05
6 *4570:B1 *197:10 2.32591e-05
7 *4570:B1 *245:12 0.000151061
8 *4570:B1 *245:69 8.03962e-05
9 *4570:A3 *4570:B1 0.000304557
*RES
1 *4568:X *4570:B1 36.1268 
*END

*D_NET *118 0.000146604
*CONN
*I *4570:B2 I *D sky130_fd_sc_hd__a32o_1
*I *4569:Y O *D sky130_fd_sc_hd__a41oi_1
*CAP
1 *4570:B2 4.12978e-05
2 *4569:Y 4.12978e-05
3 *4570:B2 *166:41 2.59355e-05
4 *4570:B2 *170:32 1.21371e-05
5 *4570:B2 *170:49 2.59355e-05
6 *4570:A3 *4570:B2 0
*RES
1 *4569:Y *4570:B2 19.5643 
*END

*D_NET *119 0.00213307
*CONN
*I *4571:B1 I *D sky130_fd_sc_hd__a32o_1
*I *4570:X O *D sky130_fd_sc_hd__a32o_1
*CAP
1 *4571:B1 0.000617299
2 *4570:X 0.000617299
3 *4571:B1 *4473:A3 0.000105123
4 *4571:B1 *4571:B2 0.000124967
5 *4571:B1 *4687:A 1.1671e-05
6 *4571:B1 *162:105 0.000263532
7 *4571:B1 *163:103 0.000195386
8 *4571:B1 *182:41 0.000173812
9 *4571:A2 *4571:B1 2.39852e-05
*RES
1 *4570:X *4571:B1 40.4839 
*END

*D_NET *120 0.000771281
*CONN
*I *4572:B1 I *D sky130_fd_sc_hd__a32o_1
*I *4571:X O *D sky130_fd_sc_hd__a32o_1
*CAP
1 *4572:B1 0.000250203
2 *4571:X 0.000250203
3 *4572:B1 *4560:B2 2.8266e-06
4 *4572:B1 *4687:A 1.72894e-05
5 *4572:B1 *162:105 0
6 *4572:B1 *190:22 1.1671e-05
7 *4572:B1 *199:28 2.39852e-05
8 *4571:A3 *4572:B1 8.00806e-05
9 *4572:A2 *4572:B1 7.50601e-05
10 *4572:A3 *4572:B1 5.99631e-05
*RES
1 *4571:X *4572:B1 32.7518 
*END

*D_NET *121 0.00164713
*CONN
*I *4574:A2 I *D sky130_fd_sc_hd__a22o_1
*I *4572:X O *D sky130_fd_sc_hd__a32o_1
*CAP
1 *4574:A2 0.000512465
2 *4572:X 0.000512465
3 *4574:A2 *4473:A3 0
4 *4574:A2 *4560:B2 0.000153047
5 *4574:A2 *4574:B1 5.01213e-05
6 *4574:A2 *4665:A 0
7 *4574:A2 *162:105 8.56716e-05
8 *4574:A2 *199:24 0.000188586
9 *4574:A2 *199:28 0.000144773
*RES
1 *4572:X *4574:A2 37.1 
*END

*D_NET *122 0.000721367
*CONN
*I *4574:B1 I *D sky130_fd_sc_hd__a22o_1
*I *4573:Y O *D sky130_fd_sc_hd__nand2_1
*CAP
1 *4574:B1 0.000220895
2 *4573:Y 0.000220895
3 *4574:B1 *4665:A 0
4 *4574:B1 *217:12 0.000229456
5 *4574:A2 *4574:B1 5.01213e-05
*RES
1 *4573:Y *4574:B1 31.1179 
*END

*D_NET *123 0.0017944
*CONN
*I *4577:A2 I *D sky130_fd_sc_hd__a31o_1
*I *4575:X O *D sky130_fd_sc_hd__a21o_1
*CAP
1 *4577:A2 0.000306002
2 *4575:X 0.000306002
3 *4577:A2 *4484:A 6.87574e-05
4 *4577:A2 *134:12 0.000288564
5 *4577:A2 *163:50 5.52302e-05
6 *4577:A2 *178:12 0.000266099
7 *4577:A1 *4577:A2 5.71472e-05
8 *67:22 *4577:A2 0.000446603
*RES
1 *4575:X *4577:A2 36.4393 
*END

*D_NET *124 0.00350267
*CONN
*I *4577:A3 I *D sky130_fd_sc_hd__a31o_1
*I *4576:X O *D sky130_fd_sc_hd__a31o_1
*CAP
1 *4577:A3 0.000800804
2 *4576:X 0.000800804
3 *4577:A3 *4484:A 1.5424e-05
4 *4577:A3 *4488:A 5.33005e-05
5 *4577:A3 *4531:A 4.66511e-05
6 *4577:A3 *4535:A1 0.000123288
7 *4577:A3 *4543:A1 0.000100236
8 *4577:A3 *162:24 9.09249e-05
9 *4577:A3 *163:69 7.68957e-05
10 *4577:A3 *177:70 5.52238e-05
11 *4577:A3 *223:34 0.000123295
12 *4577:A3 *235:25 0.00012553
13 *4543:A2 *4577:A3 1.18064e-05
14 *4545:A2 *4577:A3 8.50152e-05
15 *4577:A1 *4577:A3 9.90367e-05
16 *67:22 *4577:A3 0.000872954
17 *67:41 *4577:A3 2.14757e-05
*RES
1 *4576:X *4577:A3 47.9036 
*END

*D_NET *125 0.000817902
*CONN
*I *4578:B1 I *D sky130_fd_sc_hd__o21a_1
*I *4577:X O *D sky130_fd_sc_hd__a31o_1
*CAP
1 *4578:B1 0.000234333
2 *4577:X 0.000234333
3 *4578:B1 *4484:A 5.52238e-05
4 *4578:B1 *4510:B 2.37761e-05
5 *4578:B1 *4577:B1 0
6 *4578:B1 *189:32 0
7 *63:10 *4578:B1 0.000270236
*RES
1 *4577:X *4578:B1 32.5107 
*END

*D_NET *126 0.00104975
*CONN
*I *4580:S I *D sky130_fd_sc_hd__mux2_1
*I *4578:X O *D sky130_fd_sc_hd__o21a_1
*CAP
1 *4580:S 0.000423224
2 *4578:X 0.000423224
3 *4580:A0 *4580:S 7.30398e-05
4 *4591:B *4580:S 0
5 *62:38 *4580:S 0.000130264
*RES
1 *4578:X *4580:S 36.5286 
*END

*D_NET *127 0.00116658
*CONN
*I *4580:A1 I *D sky130_fd_sc_hd__mux2_1
*I *4579:X O *D sky130_fd_sc_hd__o211a_1
*CAP
1 *4580:A1 0.000583289
2 *4579:X 0.000583289
*RES
1 *4579:X *4580:A1 37.1714 
*END

*D_NET *128 0.00573762
*CONN
*I *4585:S I *D sky130_fd_sc_hd__mux2_1
*I *4581:X O *D sky130_fd_sc_hd__a311o_1
*CAP
1 *4585:S 0.00132214
2 *4581:X 0.000915595
3 *128:14 0.00223773
4 *4585:S *4583:A2 7.30708e-05
5 *4585:S *4586:A1 9.77181e-05
6 *4585:S *4586:A2 0.000229889
7 *4585:S *4586:B1 0.000328258
8 *128:14 *4558:A 8.43492e-05
9 *128:14 *4581:A2 3.15739e-05
10 *128:14 *4583:A2 0.000162857
11 *128:14 *4586:B1 0
12 *128:14 *164:74 0.00010326
13 *4558:B *128:14 0.000140933
14 *87:43 *128:14 1.02504e-05
*RES
1 *4581:X *128:14 33.9964 
2 *128:14 *4585:S 26.7464 
*END

*D_NET *129 0.00156593
*CONN
*I *4583:B2 I *D sky130_fd_sc_hd__a221o_1
*I *4587:D1 I *D sky130_fd_sc_hd__o2111a_1
*I *4582:Y O *D sky130_fd_sc_hd__nand2_1
*CAP
1 *4583:B2 0.00014846
2 *4587:D1 4.80768e-05
3 *4582:Y 0.0001443
4 *129:10 0.000340837
5 *4583:B2 *4532:A2 1.50181e-05
6 *4583:B2 *4583:A2 2.84269e-05
7 *4583:B2 *228:40 1.01487e-05
8 *4583:B2 *243:39 2.84269e-05
9 *4587:D1 *4587:A2 4.08637e-05
10 *4587:D1 *197:68 9.41642e-05
11 *4587:D1 *228:46 9.60875e-05
12 *129:10 *227:16 9.60939e-05
13 *129:10 *228:21 0.000108511
14 *129:10 *228:40 1.90936e-05
15 *4583:B1 *4583:B2 1.02504e-05
16 *84:10 *4583:B2 6.92626e-05
17 *88:12 *4583:B2 0.00021682
18 *88:12 *129:10 5.10922e-05
*RES
1 *4582:Y *129:10 16.3893 
2 *129:10 *4587:D1 15.1571 
3 *129:10 *4583:B2 17.4786 
*END

*D_NET *130 0.0015986
*CONN
*I *4586:B1 I *D sky130_fd_sc_hd__o21a_1
*I *4583:X O *D sky130_fd_sc_hd__a221o_1
*CAP
1 *4586:B1 0.000506289
2 *4583:X 0.000506289
3 *4586:B1 *4583:A2 2.02165e-05
4 *4586:B1 *4586:A1 0.000183015
5 *4586:B1 *4586:A2 5.45307e-05
6 *4585:S *4586:B1 0.000328258
7 *128:14 *4586:B1 0
*RES
1 *4583:X *4586:B1 30.1357 
*END

*D_NET *131 0.000697519
*CONN
*I *4585:A1 I *D sky130_fd_sc_hd__mux2_1
*I *4584:Y O *D sky130_fd_sc_hd__nor2_1
*CAP
1 *4585:A1 0.000206821
2 *4584:Y 0.000206821
3 *4585:A1 *4467:B 7.49387e-06
4 *4585:A1 *4584:B 0.000200533
5 *4585:A1 *161:14 6.05161e-06
6 *4585:A1 *163:10 6.97972e-05
*RES
1 *4584:Y *4585:A1 31.0107 
*END

*D_NET *132 0.00040109
*CONN
*I *4586:A2 I *D sky130_fd_sc_hd__o21a_1
*I *4585:X O *D sky130_fd_sc_hd__mux2_1
*CAP
1 *4586:A2 5.0299e-05
2 *4585:X 5.0299e-05
3 *4586:A2 *4590:B1 1.60719e-05
4 *4585:S *4586:A2 0.000229889
5 *4586:B1 *4586:A2 5.45307e-05
*RES
1 *4585:X *4586:A2 20.7786 
*END

*D_NET *133 0.00133072
*CONN
*I *4590:B1 I *D sky130_fd_sc_hd__o32a_1
*I *4586:X O *D sky130_fd_sc_hd__o21a_1
*CAP
1 *4590:B1 0.000493093
2 *4586:X 0.000493093
3 *4590:B1 *4590:B2 5.80706e-06
4 *4590:B1 *4591:A 5.53592e-05
5 *4590:B1 *161:18 0.00019791
6 *4590:B1 *163:50 6.93855e-05
7 *4586:A2 *4590:B1 1.60719e-05
*RES
1 *4586:X *4590:B1 37.3679 
*END

*D_NET *134 0.00367583
*CONN
*I *4590:A2 I *D sky130_fd_sc_hd__o32a_1
*I *4587:X O *D sky130_fd_sc_hd__o2111a_1
*CAP
1 *4590:A2 0
2 *4587:X 0.00108379
3 *134:12 0.00108379
4 *134:12 *4532:A2 6.23966e-05
5 *134:12 *4590:A3 5.52238e-05
6 *134:12 *178:12 2.39779e-05
7 *134:12 *243:56 0
8 *134:12 *243:68 0.000241205
9 *4577:A2 *134:12 0.000288564
10 *67:22 *134:12 0.000836881
11 *83:10 *134:12 0
12 *84:10 *134:12 0
*RES
1 *4587:X *134:12 41.3893 
2 *134:12 *4590:A2 9.3 
*END

*D_NET *135 0.000493707
*CONN
*I *4589:B2 I *D sky130_fd_sc_hd__o221a_1
*I *4588:Y O *D sky130_fd_sc_hd__nor2_1
*CAP
1 *4589:B2 0.000154022
2 *4588:Y 0.000154022
3 *4589:B2 *4588:A 0.000100625
4 *4589:B2 *4589:A1 1.04232e-05
5 *4589:B2 *243:68 6.09143e-05
6 *4589:B1 *4589:B2 1.3701e-05
*RES
1 *4588:Y *4589:B2 22.1536 
*END

*D_NET *136 0.000850461
*CONN
*I *4590:A3 I *D sky130_fd_sc_hd__o32a_1
*I *4589:X O *D sky130_fd_sc_hd__o221a_1
*CAP
1 *4590:A3 0.000323896
2 *4589:X 0.000323896
3 *4590:A3 *4589:A2 0
4 *4590:A3 *4591:A 0
5 *4590:A3 *4592:S 1.92905e-05
6 *4590:A3 *161:18 0
7 *4590:A3 *163:23 0.000128154
8 *134:12 *4590:A3 5.52238e-05
*RES
1 *4589:X *4590:A3 33.85 
*END

*D_NET *137 0.0011415
*CONN
*I *4592:S I *D sky130_fd_sc_hd__mux2_1
*I *4590:X O *D sky130_fd_sc_hd__o32a_1
*CAP
1 *4592:S 0.000561103
2 *4590:X 0.000561103
3 *4592:S *4590:A1 0
4 *4592:S *4591:A 0
5 *4592:S *4592:A1 0
6 *4592:S *221:10 0
7 *4590:A3 *4592:S 1.92905e-05
*RES
1 *4590:X *4592:S 36.5821 
*END

*D_NET *138 0.000706625
*CONN
*I *4592:A1 I *D sky130_fd_sc_hd__mux2_1
*I *4591:X O *D sky130_fd_sc_hd__and3_1
*CAP
1 *4592:A1 0.000251612
2 *4591:X 0.000251612
3 *4592:A1 *221:10 2.79092e-05
4 *4591:C *4592:A1 0
5 *4592:A0 *4592:A1 0.000175493
6 *4592:S *4592:A1 0
*RES
1 *4591:X *4592:A1 32.9571 
*END

*D_NET *139 0.0031927
*CONN
*I *4598:B I *D sky130_fd_sc_hd__and2_4
*I *4599:B I *D sky130_fd_sc_hd__nor2_1
*I *4597:A I *D sky130_fd_sc_hd__nor2_1
*I *4595:X O *D sky130_fd_sc_hd__and3_4
*CAP
1 *4598:B 0
2 *4599:B 0.000107996
3 *4597:A 8.66141e-05
4 *4595:X 9.46434e-05
5 *139:25 0.00050734
6 *139:8 0.000580602
7 *4597:A *4597:B 1.3142e-05
8 *4597:A *248:14 0.00012401
9 *4599:B *206:14 1.97695e-05
10 *4599:B *206:23 4.27437e-05
11 *4599:B *206:27 2.59355e-05
12 *139:8 *205:12 7.07155e-06
13 *139:25 *4456:S 2.58997e-05
14 *139:25 *4611:A 0.000100492
15 *139:25 *4618:CLK 0.000366675
16 *139:25 *214:24 0.000353268
17 *139:25 *248:8 0.000347354
18 *139:25 *248:14 0.000236806
19 *4618:D *139:25 0
20 *4619:D *139:25 0.00015234
*RES
1 *4595:X *139:8 14.7464 
2 *139:8 *4597:A 15.7464 
3 *139:8 *139:25 18.0357 
4 *139:25 *4599:B 11.5143 
5 *139:25 *4598:B 9.3 
*END

*D_NET *140 0.000885419
*CONN
*I *4597:B I *D sky130_fd_sc_hd__nor2_1
*I *4596:Y O *D sky130_fd_sc_hd__a21oi_1
*CAP
1 *4597:B 0.000190192
2 *4596:Y 0.000190192
3 *4597:B *4462:A0 7.95674e-05
4 *4597:B *4596:A1 0
5 *4597:B *248:8 4.97876e-05
6 *4597:B *248:14 0.000362538
7 *4597:A *4597:B 1.3142e-05
*RES
1 *4596:Y *4597:B 33.1893 
*END

*D_NET *141 0.00348019
*CONN
*I *4601:B I *D sky130_fd_sc_hd__xor2_1
*I *4602:C I *D sky130_fd_sc_hd__and3_4
*I *4603:A2 I *D sky130_fd_sc_hd__a21oi_1
*I *4600:A I *D sky130_fd_sc_hd__nor2_1
*I *4598:X O *D sky130_fd_sc_hd__and2_4
*CAP
1 *4601:B 6.56018e-05
2 *4602:C 4.70236e-05
3 *4603:A2 0.000375447
4 *4600:A 4.26984e-05
5 *4598:X 7.40192e-05
6 *141:23 0.000596327
7 *141:19 0.000524342
8 *141:8 0.000401601
9 *4602:C *4604:B 5.97623e-05
10 *4602:C *213:12 0.000125724
11 *4603:A2 *4478:B 2.27416e-05
12 *4603:A2 *4603:A1 1.04232e-05
13 *4603:A2 *4603:B1 0.000354111
14 *4603:A2 *207:24 8.07397e-06
15 *141:8 *4625:A 0
16 *141:8 *214:24 0.000153047
17 *141:19 *4601:A 1.00375e-05
18 *141:19 *4625:A 0
19 *141:19 *4626:A 0
20 *141:19 *214:20 0
21 *141:19 *214:24 0.000395427
22 *141:23 *4601:A 6.74815e-05
23 *141:23 *4602:A 2.60064e-05
24 *141:23 *4604:B 4.02462e-05
25 *141:23 *213:12 9.25014e-06
26 *4624:A *141:19 7.08001e-05
27 *4624:A *141:23 0
*RES
1 *4598:X *141:8 15.7464 
2 *141:8 *4600:A 14.3357 
3 *141:8 *141:19 7.41071 
4 *141:19 *141:23 3.69643 
5 *141:23 *4603:A2 19.175 
6 *141:23 *4602:C 15.4429 
7 *141:19 *4601:B 14.7464 
*END

*D_NET *142 0.000365785
*CONN
*I *4600:B I *D sky130_fd_sc_hd__nor2_1
*I *4599:Y O *D sky130_fd_sc_hd__nor2_1
*CAP
1 *4600:B 0.000162097
2 *4599:Y 0.000162097
3 *4600:B *214:24 0
4 *4619:D *4600:B 4.15914e-05
*RES
1 *4599:Y *4600:B 30.4929 
*END

*D_NET *143 0.00232711
*CONN
*I *4606:B I *D sky130_fd_sc_hd__or2_1
*I *4605:B I *D sky130_fd_sc_hd__nand2_1
*I *4604:A I *D sky130_fd_sc_hd__nor2_1
*I *4602:X O *D sky130_fd_sc_hd__and3_4
*CAP
1 *4606:B 4.46602e-05
2 *4605:B 6.6215e-05
3 *4604:A 3.72704e-05
4 *4602:X 7.2059e-05
5 *143:21 0.000396511
6 *143:8 0.000394965
7 *4605:B *4605:A 1.97695e-05
8 *4605:B *4607:B 9.71197e-05
9 *4605:B *4623:CLK 6.71657e-05
10 *4605:B *209:16 0.000224583
11 *4606:B *4607:B 5.52302e-05
12 *4606:B *4623:CLK 0.000161769
13 *4606:B *209:12 0.00010096
14 *4606:B *209:16 0.000114026
15 *143:8 *4604:B 7.58571e-05
16 *143:8 *214:10 0.000109809
17 *143:8 *214:20 4.46186e-06
18 *143:21 *4604:B 2.8266e-06
19 *143:21 *213:12 0
20 *143:21 *213:25 0
21 *143:21 *214:10 0.00028185
*RES
1 *4602:X *143:8 16.3536 
2 *143:8 *4604:A 14.3357 
3 *143:8 *143:21 11.3036 
4 *143:21 *4605:B 11.9071 
5 *143:21 *4606:B 12.0321 
*END

*D_NET *144 0.00126461
*CONN
*I *4604:B I *D sky130_fd_sc_hd__nor2_1
*I *4603:Y O *D sky130_fd_sc_hd__a21oi_1
*CAP
1 *4604:B 0.000307137
2 *4603:Y 0.000307137
3 *4604:B *4603:A1 0
4 *4604:B *4603:B1 0.000119538
5 *4604:B *4626:A 6.48387e-06
6 *4604:B *207:24 0.000264784
7 *4604:B *213:12 8.08376e-05
8 *4604:B *214:20 0
9 *4602:C *4604:B 5.97623e-05
10 *141:23 *4604:B 4.02462e-05
11 *143:8 *4604:B 7.58571e-05
12 *143:21 *4604:B 2.8266e-06
*RES
1 *4603:Y *4604:B 36.0286 
*END

*D_NET *145 0.00284367
*CONN
*I *4608:B I *D sky130_fd_sc_hd__xnor2_1
*I *4607:A I *D sky130_fd_sc_hd__and2_1
*I *4605:Y O *D sky130_fd_sc_hd__nand2_1
*CAP
1 *4608:B 0.000935233
2 *4607:A 0.000119257
3 *4605:Y 0
4 *145:6 0.00105449
5 *4607:A *225:8 4.91533e-05
6 *4607:A *232:10 3.61008e-05
7 *4608:B *4608:A 0.000232399
8 *4608:B *4615:A 2.80853e-05
9 *4608:B *4643:A 0.000122101
10 *4608:B *225:8 6.58195e-05
11 *4608:B *232:10 6.16864e-05
12 *4623:D *4608:B 0.000139343
*RES
1 *4605:Y *145:6 13.8 
2 *145:6 *4607:A 16.2107 
3 *145:6 *4608:B 30.8714 
*END

*D_NET *146 0.000349832
*CONN
*I *4607:B I *D sky130_fd_sc_hd__and2_1
*I *4606:X O *D sky130_fd_sc_hd__or2_1
*CAP
1 *4607:B 2.7313e-05
2 *4606:X 2.7313e-05
3 *4607:B *4623:CLK 0.000142856
4 *4605:B *4607:B 9.71197e-05
5 *4606:B *4607:B 5.52302e-05
*RES
1 *4606:X *4607:B 19.9571 
*END

*D_NET *147 0.000751097
*CONN
*I *4454:B1 I *D sky130_fd_sc_hd__o21ai_4
*I *4453:X O *D sky130_fd_sc_hd__or2_4
*CAP
1 *4454:B1 0.000320649
2 *4453:X 0.000320649
3 *4454:B1 *247:36 0.0001098
4 *4616:RESET_B *4454:B1 0
*RES
1 *4453:X *4454:B1 33.7607 
*END

*D_NET *148 0.0155049
*CONN
*I *4544:B1 I *D sky130_fd_sc_hd__a21oi_2
*I *4563:A1 I *D sky130_fd_sc_hd__a31o_1
*I *4498:A I *D sky130_fd_sc_hd__nor2_1
*I *4473:B1 I *D sky130_fd_sc_hd__a31o_1
*I *4517:A1 I *D sky130_fd_sc_hd__o211a_1
*I *4516:A I *D sky130_fd_sc_hd__nand2_1
*I *4511:A I *D sky130_fd_sc_hd__nor3_2
*I *4556:A1 I *D sky130_fd_sc_hd__a31o_1
*I *4540:A I *D sky130_fd_sc_hd__or2_4
*I *4485:A1 I *D sky130_fd_sc_hd__a31o_1
*I *4454:Y O *D sky130_fd_sc_hd__o21ai_4
*CAP
1 *4544:B1 0
2 *4563:A1 0.000175479
3 *4498:A 0
4 *4473:B1 0.000266078
5 *4517:A1 0
6 *4516:A 0
7 *4511:A 0.000425487
8 *4556:A1 3.0887e-05
9 *4540:A 0
10 *4485:A1 5.19991e-05
11 *4454:Y 0.000979587
12 *148:62 0.00110684
13 *148:51 0.000767064
14 *148:45 0.000168585
15 *148:37 0.000364591
16 *148:33 0.00113021
17 *148:29 0.000687467
18 *148:25 0.000428357
19 *148:23 0.000440464
20 *148:8 0.00135512
21 *4473:B1 *4563:A3 1.81709e-05
22 *4473:B1 *4566:A3 0.000195547
23 *4473:B1 *162:105 0
24 *4473:B1 *163:103 1.10856e-05
25 *4485:A1 *4500:A2 3.34366e-05
26 *4485:A1 *193:8 0.000126439
27 *4485:A1 *233:14 8.15939e-05
28 *4511:A *165:8 0
29 *4511:A *197:50 0.00018313
30 *4556:A1 *4556:A2 1.02504e-05
31 *4556:A1 *4556:B1 1.02504e-05
32 *4556:A1 *197:50 2.49484e-05
33 *4563:A1 *4481:B1 4.57445e-05
34 *4563:A1 *4573:A 0
35 *4563:A1 *237:68 0
36 *148:23 *4500:A2 0.000431813
37 *148:23 *174:12 0
38 *148:23 *233:14 9.57064e-05
39 *148:29 *191:23 4.5622e-05
40 *148:29 *191:30 5.52238e-05
41 *148:33 *191:23 0.00138499
42 *148:37 *4517:C1 9.90367e-05
43 *148:37 *177:45 2.24195e-05
44 *148:37 *182:41 0.00104717
45 *148:37 *191:23 0.00053318
46 *148:45 *182:41 5.59728e-05
47 *148:51 *4516:B 5.80706e-06
48 *148:51 *4529:A1 1.02504e-05
49 *148:62 *223:14 9.02232e-05
50 *4511:B *4511:A 3.99614e-06
51 *4517:B1 *148:37 5.16637e-05
52 *4517:B1 *148:45 0.000192231
53 *4523:A2 *148:45 5.52302e-05
54 *4542:A2 *148:62 0.00127316
55 *4553:B1 *148:51 6.81459e-05
56 *4560:B1 *4511:A 0.0001744
57 *4571:A2 *148:62 6.11433e-05
58 *4572:A3 *4473:B1 0.000144038
59 *62:32 *4511:A 2.28499e-05
60 *71:29 *148:51 0.00010177
61 *95:12 *4563:A1 0.000344217
62 *95:12 *148:29 1.58163e-05
*RES
1 *4454:Y *148:8 28.7107 
2 *148:8 *4485:A1 15.7464 
3 *148:8 *148:23 12.2679 
4 *148:23 *148:25 1.76786 
5 *148:25 *148:29 2.60714 
6 *148:29 *148:33 13.6964 
7 *148:33 *148:37 12.4643 
8 *148:37 *148:45 2.16964 
9 *148:45 *148:51 11.8571 
10 *148:51 *4540:A 9.3 
11 *148:51 *148:62 18.6071 
12 *148:62 *4556:A1 14.5321 
13 *148:62 *4511:A 22.4964 
14 *148:45 *4516:A 9.3 
15 *148:37 *4517:A1 9.3 
16 *148:33 *4473:B1 23.5857 
17 *148:29 *4498:A 9.3 
18 *148:25 *4563:A1 23.1036 
19 *148:23 *4544:B1 9.3 
*END

*D_NET *149 0.0139802
*CONN
*I *4640:A I *D sky130_fd_sc_hd__buf_1
*I *4639:A I *D sky130_fd_sc_hd__buf_1
*I *4637:A I *D sky130_fd_sc_hd__buf_1
*I *4638:A I *D sky130_fd_sc_hd__buf_1
*I *4455:X O *D sky130_fd_sc_hd__mux2_8
*CAP
1 *4640:A 0
2 *4639:A 0
3 *4637:A 0.000106345
4 *4638:A 0
5 *4455:X 0.000811623
6 *149:32 0.00271384
7 *149:22 0.00371505
8 *149:12 0.00191918
9 *4637:A *4490:A2 2.26824e-05
10 *4637:A *4576:A1 2.89016e-05
11 *4637:A *4581:A2 2.89016e-05
12 *4637:A *162:18 0.000118589
13 *4637:A *197:68 6.8646e-06
14 *149:12 *233:14 4.1331e-06
15 *149:12 *233:22 0
16 *149:22 *4481:A3 5.52238e-05
17 *149:22 *4481:A4 9.41642e-05
18 *149:22 *197:10 1.91418e-05
19 *149:22 *233:22 0.000125072
20 *149:22 *245:69 7.38748e-05
21 *149:22 *246:8 5.31902e-05
22 *149:22 *246:10 5.36881e-05
23 *149:22 *246:14 0.000618569
24 *149:32 *4486:A1 0.000910248
25 *149:32 *4490:A2 2.11419e-05
26 *149:32 *4514:A 0.000121573
27 *149:32 *162:12 9.90367e-05
28 *149:32 *162:18 0.000155741
29 *149:32 *162:72 0.00181722
30 *149:32 *193:38 1.4396e-05
31 *149:32 *197:10 5.5782e-05
32 *149:32 *235:25 0
33 *149:32 *245:8 3.17067e-05
34 *149:32 *245:69 4.46186e-06
35 *4570:B1 *149:22 0.000101545
36 *87:43 *4637:A 7.83366e-05
*RES
1 *4455:X *149:12 31.6571 
2 *149:12 *149:22 25.6071 
3 *149:22 *149:32 48.8214 
4 *149:32 *4638:A 13.8 
5 *149:32 *4637:A 17.1929 
6 *149:22 *4639:A 13.8 
7 *149:12 *4640:A 9.3 
*END

*D_NET *150 0.00680476
*CONN
*I *4499:A1 I *D sky130_fd_sc_hd__a21oi_4
*I *4636:A I *D sky130_fd_sc_hd__clkbuf_1
*I *4567:A1 I *D sky130_fd_sc_hd__a21o_1
*I *4466:A I *D sky130_fd_sc_hd__and2_4
*I *4456:X O *D sky130_fd_sc_hd__mux2_8
*CAP
1 *4499:A1 0.000295618
2 *4636:A 0
3 *4567:A1 0.000207973
4 *4466:A 0.000146563
5 *4456:X 0.0005197
6 *150:10 0.000797689
7 *150:8 0.000585578
8 *150:6 0.000957743
9 *4466:A *195:12 0.00045506
10 *4466:A *237:29 0.00083695
11 *4499:A1 *4481:A4 0
12 *4499:A1 *4499:A2 0
13 *4499:A1 *236:39 0
14 *4499:A1 *242:23 0
15 *4567:A1 *4486:B1 0.000177941
16 *4567:A1 *4487:A2 0.000154762
17 *4567:A1 *157:80 0
18 *4567:A1 *168:12 0
19 *4567:A1 *195:20 0.000100735
20 *4567:A1 *246:16 9.25014e-06
21 *150:8 *4481:A2 5.17614e-05
22 *150:8 *237:23 0.000126572
23 *150:10 *4481:A2 5.62995e-05
24 *150:10 *195:12 5.33433e-05
25 *150:10 *237:23 0.00018372
26 *150:10 *237:29 0.0010875
*RES
1 *4456:X *150:6 18.05 
2 *150:6 *150:8 3 
3 *150:8 *150:10 12.0357 
4 *150:10 *4466:A 17.2286 
5 *150:10 *4567:A1 23.2821 
6 *150:8 *4636:A 9.3 
7 *150:6 *4499:A1 23.2821 
*END

*D_NET *151 0.00172968
*CONN
*I *4474:B I *D sky130_fd_sc_hd__and3_1
*I *4502:A2 I *D sky130_fd_sc_hd__a31oi_1
*I *4463:A I *D sky130_fd_sc_hd__and3_4
*I *4457:Y O *D sky130_fd_sc_hd__nand2_1
*CAP
1 *4474:B 1.91209e-05
2 *4502:A2 8.78653e-05
3 *4463:A 7.34731e-05
4 *4457:Y 6.8104e-05
5 *151:23 0.000475934
6 *151:8 0.000510525
7 *4463:A *229:8 2.72859e-05
8 *4474:B *229:20 0
9 *4502:A2 *4502:A1 3.57366e-05
10 *4502:A2 *4502:A3 7.61932e-05
11 *4502:A2 *229:20 0.000108742
12 *4502:A2 *231:18 1.74352e-05
13 *151:8 *152:10 0
14 *151:23 *4502:A3 6.57815e-05
15 *151:23 *152:10 0
16 *151:23 *152:19 0
17 *151:23 *157:14 0
18 *151:23 *168:12 9.90431e-05
19 *151:23 *231:16 6.4443e-05
*RES
1 *4457:Y *151:8 14.8357 
2 *151:8 *4463:A 14.7464 
3 *151:8 *151:23 11.2679 
4 *151:23 *4502:A2 11.8 
5 *151:23 *4474:B 9.72857 
*END

*D_NET *152 0.00158153
*CONN
*I *4502:A3 I *D sky130_fd_sc_hd__a31oi_1
*I *4474:C I *D sky130_fd_sc_hd__and3_1
*I *4463:B I *D sky130_fd_sc_hd__and3_4
*I *4458:Y O *D sky130_fd_sc_hd__nand2b_1
*CAP
1 *4502:A3 0.000100454
2 *4474:C 9.18427e-05
3 *4463:B 0
4 *4458:Y 0.000168401
5 *152:19 0.000285476
6 *152:10 0.000261581
7 *4474:C *231:16 0.000127518
8 *4502:A3 *157:14 4.49293e-05
9 *4502:A3 *231:16 0.000225609
10 *4502:A3 *231:18 5.52238e-05
11 *152:10 *4458:B 3.82227e-06
12 *152:10 *157:14 0
13 *152:19 *157:14 7.46979e-05
14 *4502:A2 *4502:A3 7.61932e-05
15 *151:8 *152:10 0
16 *151:23 *4502:A3 6.57815e-05
17 *151:23 *152:10 0
18 *151:23 *152:19 0
*RES
1 *4458:Y *152:10 16.2821 
2 *152:10 *4463:B 13.8 
3 *152:10 *152:19 1.64286 
4 *152:19 *4474:C 15.0411 
5 *152:19 *4502:A3 17.1214 
*END

*D_NET *153 0.000877963
*CONN
*I *4477:A1 I *D sky130_fd_sc_hd__o31ai_1
*I *4476:A I *D sky130_fd_sc_hd__or3_4
*I *4459:Y O *D sky130_fd_sc_hd__nor2_1
*CAP
1 *4477:A1 0.000124676
2 *4476:A 0
3 *4459:Y 0.000147625
4 *153:10 0.000272301
5 *4477:A1 *4477:A2 0.000145001
6 *4477:A1 *170:12 0
7 *4477:A1 *231:12 0
8 *153:10 *4477:A2 5.80706e-06
9 *153:10 *154:10 8.15939e-05
10 *153:10 *248:24 0.00010096
*RES
1 *4459:Y *153:10 16.6929 
2 *153:10 *4476:A 13.8 
3 *153:10 *4477:A1 16.7107 
*END

*D_NET *154 0.00106472
*CONN
*I *4477:A2 I *D sky130_fd_sc_hd__o31ai_1
*I *4476:B I *D sky130_fd_sc_hd__or3_4
*I *4460:X O *D sky130_fd_sc_hd__and2b_1
*CAP
1 *4477:A2 0.000184157
2 *4476:B 0
3 *4460:X 0.000151015
4 *154:10 0.000335171
5 *4477:A2 *231:12 0
6 *4477:A2 *231:16 6.10112e-05
7 *154:10 *248:24 0.00010096
8 *4477:A1 *4477:A2 0.000145001
9 *153:10 *4477:A2 5.80706e-06
10 *153:10 *154:10 8.15939e-05
*RES
1 *4460:X *154:10 16.6929 
2 *154:10 *4476:B 13.8 
3 *154:10 *4477:A2 17.5054 
*END

*D_NET *155 0.000728729
*CONN
*I *4634:A I *D sky130_fd_sc_hd__buf_1
*I *4461:X O *D sky130_fd_sc_hd__mux2_1
*CAP
1 *4634:A 0.000330619
2 *4461:X 0.000330619
3 *4634:A *4458:B 6.74911e-05
*RES
1 *4461:X *4634:A 33.475 
*END

*D_NET *156 0.000495407
*CONN
*I *4632:A I *D sky130_fd_sc_hd__buf_1
*I *4462:X O *D sky130_fd_sc_hd__mux2_1
*CAP
1 *4632:A 0.000247704
2 *4462:X 0.000247704
*RES
1 *4462:X *4632:A 31.725 
*END

*D_NET *157 0.0242069
*CONN
*I *4500:C1 I *D sky130_fd_sc_hd__a2111o_1
*I *4516:B I *D sky130_fd_sc_hd__nand2_1
*I *4533:B1 I *D sky130_fd_sc_hd__a211o_1
*I *4582:B I *D sky130_fd_sc_hd__nand2_1
*I *4532:A2 I *D sky130_fd_sc_hd__o21ai_1
*I *4501:A1 I *D sky130_fd_sc_hd__o21a_4
*I *4463:X O *D sky130_fd_sc_hd__and3_4
*CAP
1 *4500:C1 0.000533415
2 *4516:B 0.00099466
3 *4533:B1 0.000104209
4 *4582:B 0
5 *4532:A2 0.000453456
6 *4501:A1 0.000287279
7 *4463:X 0.000548073
8 *157:80 0.00214858
9 *157:41 0.000526367
10 *157:37 0.000283039
11 *157:18 0.00418811
12 *157:16 0.00379491
13 *157:14 0.00116858
14 *4500:C1 *4507:A1 8.71847e-05
15 *4500:C1 *4687:A 0.00117669
16 *4500:C1 *197:10 0.000104777
17 *4500:C1 *245:80 0.000312743
18 *4501:A1 *4475:B 0
19 *4501:A1 *4501:A2 5.71472e-05
20 *4501:A1 *4501:B1 0
21 *4501:A1 *4536:B1_N 6.8646e-06
22 *4501:A1 *169:26 0.000295144
23 *4501:A1 *195:10 0
24 *4501:A1 *227:10 0
25 *4501:A1 *230:14 5.52238e-05
26 *4516:B *4528:A1 7.77751e-05
27 *4516:B *4528:C1 0.00010096
28 *4516:B *4566:A1 5.52238e-05
29 *4516:B *4566:A3 5.33005e-05
30 *4516:B *4566:B1 1.33343e-05
31 *4516:B *158:35 0.000580451
32 *4516:B *158:48 8.0786e-06
33 *4516:B *161:97 0.000123871
34 *4516:B *177:45 5.01213e-05
35 *4516:B *193:47 9.10431e-06
36 *4532:A2 *223:45 3.97677e-05
37 *4532:A2 *227:16 5.33005e-05
38 *4532:A2 *228:21 0.000157707
39 *4532:A2 *228:40 3.36969e-05
40 *4532:A2 *243:56 0.000128154
41 *4532:A2 *243:68 5.33005e-05
42 *4533:B1 *4532:A1 4.6025e-06
43 *4533:B1 *169:26 4.52545e-05
44 *4533:B1 *227:10 1.52978e-05
45 *4533:B1 *227:66 5.25e-05
46 *157:14 *4503:A 0
47 *157:14 *168:12 0.000133477
48 *157:14 *229:14 5.1139e-05
49 *157:18 *4486:A1 0.000534869
50 *157:18 *4503:A 9.92409e-05
51 *157:18 *4552:A 0.000494828
52 *157:18 *164:14 0.000557525
53 *157:18 *166:29 0.000120587
54 *157:37 *169:26 9.54907e-05
55 *157:37 *227:10 0.000143278
56 *157:41 *4587:B1 0.000225616
57 *157:41 *227:16 0.000397924
58 *157:80 *4486:B1 0
59 *157:80 *4503:A 0
60 *157:80 *4564:A2 1.09164e-05
61 *157:80 *4566:B1 0.000170379
62 *157:80 *4567:A2 0
63 *157:80 *166:41 1.97381e-05
64 *157:80 *168:12 1.76135e-05
65 *157:80 *174:34 0.000403812
66 *157:80 *197:10 0.000946761
67 *157:80 *246:16 0
68 *4502:A3 *157:14 4.49293e-05
69 *4528:A2 *4516:B 0.000186662
70 *4528:B1 *4516:B 6.57815e-05
71 *4553:B1 *4516:B 0.000195547
72 *4567:A1 *157:80 0
73 *4572:A3 *4516:B 5.52302e-05
74 *4583:B2 *4532:A2 1.50181e-05
75 *71:29 *4516:B 0
76 *84:10 *4532:A2 0.000177705
77 *87:18 *4532:A2 2.89016e-05
78 *87:18 *157:41 8.87196e-05
79 *134:12 *4532:A2 6.23966e-05
80 *148:51 *4516:B 5.80706e-06
81 *151:23 *157:14 0
82 *152:10 *157:14 0
83 *152:19 *157:14 7.46979e-05
*RES
1 *4463:X *157:14 23.2286 
2 *157:14 *157:16 4.5 
3 *157:16 *157:18 50.2321 
4 *157:18 *4501:A1 24.1571 
5 *157:18 *157:37 7.96429 
6 *157:37 *157:41 8.32143 
7 *157:41 *4532:A2 27.9607 
8 *157:41 *4582:B 9.3 
9 *157:37 *4533:B1 16.05 
10 *157:14 *157:80 20.0536 
11 *157:80 *4516:B 40.0857 
12 *157:80 *4500:C1 33.5857 
*END

*D_NET *158 0.0173607
*CONN
*I *4556:A2 I *D sky130_fd_sc_hd__a31o_1
*I *4541:A2 I *D sky130_fd_sc_hd__a21o_1
*I *4569:A2 I *D sky130_fd_sc_hd__a41oi_1
*I *4485:A2 I *D sky130_fd_sc_hd__a31o_1
*I *4481:A3 I *D sky130_fd_sc_hd__a41o_1
*I *4567:A2 I *D sky130_fd_sc_hd__a21o_1
*I *4566:A2 I *D sky130_fd_sc_hd__a311o_1
*I *4492:A1 I *D sky130_fd_sc_hd__a31o_1
*I *4464:Y O *D sky130_fd_sc_hd__nand2b_4
*CAP
1 *4556:A2 8.59638e-05
2 *4541:A2 0.000129518
3 *4569:A2 0
4 *4485:A2 8.75645e-05
5 *4481:A3 9.5702e-05
6 *4567:A2 0.000326089
7 *4566:A2 5.23239e-05
8 *4492:A1 7.6553e-05
9 *4464:Y 0.000815103
10 *158:106 0.00112953
11 *158:73 0.000550865
12 *158:65 0.000367599
13 *158:48 0.00086152
14 *158:35 0.00200518
15 *158:23 0.002444
16 *158:12 0.00100419
17 *4481:A3 *4485:A3 0.000196269
18 *4481:A3 *237:68 0.000100009
19 *4481:A3 *246:10 5.33005e-05
20 *4492:A1 *4492:A3 0.00018372
21 *4492:A1 *4581:A2 2.59355e-05
22 *4492:A1 *170:49 1.98839e-05
23 *4492:A1 *170:51 2.14757e-05
24 *4492:A1 *193:38 0.000310292
25 *4541:A2 *178:82 0.000149259
26 *4556:A2 *4556:B1 9.3977e-05
27 *4556:A2 *183:36 2.84494e-05
28 *4556:A2 *197:50 1.02504e-05
29 *4556:A2 *197:68 0.000245356
30 *4566:A2 *4566:B1 3.99614e-06
31 *4567:A2 *4564:A2 6.0038e-05
32 *4567:A2 *4567:B1 5.52238e-05
33 *4567:A2 *4569:A1 0.000164561
34 *4567:A2 *166:41 5.59013e-05
35 *4567:A2 *179:10 2.49484e-05
36 *4567:A2 *246:16 0.00015234
37 *158:12 *4492:A3 0.000171375
38 *158:12 *4519:C 0.000182552
39 *158:12 *4521:A2 5.84547e-05
40 *158:12 *4521:B1 0
41 *158:12 *4524:A2 0.000101761
42 *158:12 *4551:B 0
43 *158:12 *162:72 0
44 *158:12 *164:18 8.359e-05
45 *158:12 *166:10 0
46 *158:12 *170:75 6.8646e-06
47 *158:12 *229:33 0
48 *158:12 *231:52 0
49 *158:23 *170:75 7.49895e-05
50 *158:23 *193:47 0.000215441
51 *158:35 *4566:A3 1.58163e-05
52 *158:35 *163:92 0.000100118
53 *158:48 *4487:A1 5.58875e-06
54 *158:48 *4564:A2 0.000276728
55 *158:48 *4566:A1 1.40306e-05
56 *158:48 *4566:B1 5.2072e-05
57 *158:48 *174:21 2.97829e-05
58 *158:48 *179:10 6.40275e-05
59 *158:48 *195:20 0
60 *158:73 *4482:A1 0.000372737
61 *158:73 *4482:A2 0.000186662
62 *158:73 *4482:B1 0.000135923
63 *158:73 *4569:A1 5.33005e-05
64 *158:73 *170:32 0.000801998
65 *158:73 *170:49 1.97695e-05
66 *158:73 *179:10 0.000126837
67 *158:106 *170:75 4.56494e-05
68 *158:106 *178:82 0.000884732
69 *158:106 *193:47 0.000261227
70 *158:106 *223:18 0.000121573
71 *4516:B *158:35 0.000580451
72 *4516:B *158:48 8.0786e-06
73 *4523:A2 *158:106 0.000120114
74 *4528:A2 *158:12 5.26184e-05
75 *4528:A2 *158:23 6.8646e-06
76 *4556:A1 *4556:A2 1.02504e-05
77 *71:29 *158:35 7.6644e-05
78 *149:22 *4481:A3 5.52238e-05
79 *157:80 *4567:A2 0
*RES
1 *4464:Y *158:12 30.175 
2 *158:12 *4492:A1 16.8 
3 *158:12 *158:23 3.16071 
4 *158:23 *158:35 32.0357 
5 *158:35 *4566:A2 10.3357 
6 *158:35 *158:48 12.9107 
7 *158:48 *4567:A2 20.6929 
8 *158:48 *158:65 4.5 
9 *158:65 *158:73 13.0179 
10 *158:73 *4481:A3 21.3893 
11 *158:73 *4485:A2 10.675 
12 *158:65 *4569:A2 9.3 
13 *158:23 *158:106 19.5893 
14 *158:106 *4541:A2 11.3893 
15 *158:106 *4556:A2 21.4607 
*END

*D_NET *159 0.00123602
*CONN
*I *4485:A3 I *D sky130_fd_sc_hd__a31o_1
*I *4465:Y O *D sky130_fd_sc_hd__nand2b_1
*CAP
1 *4485:A3 0.000171989
2 *4465:Y 0.000171989
3 *4485:A3 *4481:A2 0.000271958
4 *4485:A3 *4481:A4 1.5942e-05
5 *4485:A3 *4499:A2 6.65398e-05
6 *4485:A3 *4499:B1 1.41029e-05
7 *4485:A3 *193:8 0.000314458
8 *4485:A3 *237:68 1.27784e-05
9 *4481:A3 *4485:A3 0.000196269
*RES
1 *4465:Y *4485:A3 34.1 
*END

*D_NET *160 0.00373448
*CONN
*I *4568:B I *D sky130_fd_sc_hd__or4_1
*I *4525:B I *D sky130_fd_sc_hd__or4_1
*I *4551:B I *D sky130_fd_sc_hd__nand2_1
*I *4466:X O *D sky130_fd_sc_hd__and2_4
*CAP
1 *4568:B 6.60694e-05
2 *4525:B 0
3 *4551:B 0.000259541
4 *4466:X 0.000169476
5 *160:12 0.000866122
6 *160:10 0.000842126
7 *4551:B *4521:B1 4.57445e-05
8 *4551:B *4537:B 9.60939e-05
9 *4551:B *4565:B1 0
10 *4551:B *162:72 5.59013e-05
11 *4551:B *166:29 0
12 *4568:B *4537:B 5.33005e-05
13 *4568:B *4568:C 2.28598e-05
14 *160:10 *196:10 0.000287842
15 *160:12 *4537:B 0.000969408
16 *158:12 *4551:B 0
*RES
1 *4466:X *160:10 22.0679 
2 *160:10 *160:12 9.16071 
3 *160:12 *4551:B 22.4071 
4 *160:12 *4525:B 9.3 
5 *160:10 *4568:B 10.2464 
*END

*D_NET *161 0.0208151
*CONN
*I *4584:A I *D sky130_fd_sc_hd__nor2_1
*I *4591:A I *D sky130_fd_sc_hd__and3_1
*I *4473:A1 I *D sky130_fd_sc_hd__a31o_1
*I *4566:A3 I *D sky130_fd_sc_hd__a311o_1
*I *4526:A1 I *D sky130_fd_sc_hd__a21oi_1
*I *4531:B I *D sky130_fd_sc_hd__or2_1
*I *4543:A1 I *D sky130_fd_sc_hd__a21oi_1
*I *4538:A2 I *D sky130_fd_sc_hd__a311o_1
*I *4467:Y O *D sky130_fd_sc_hd__nand2_4
*CAP
1 *4584:A 8.86837e-05
2 *4591:A 0.000394396
3 *4473:A1 0
4 *4566:A3 9.02596e-05
5 *4526:A1 7.48469e-05
6 *4531:B 0
7 *4543:A1 0.00016329
8 *4538:A2 3.97157e-05
9 *4467:Y 0.000215847
10 *161:110 0.00027474
11 *161:97 0.0021438
12 *161:74 0.001901
13 *161:59 0.00068159
14 *161:36 0.00151836
15 *161:18 0.00189421
16 *161:14 0.000827481
17 *4526:A1 *163:92 7.83587e-05
18 *4526:A1 *191:10 0.000146618
19 *4538:A2 *4520:B 0
20 *4538:A2 *4538:A1 2.61337e-05
21 *4543:A1 *4547:A2 0.000267821
22 *4566:A3 *4563:A3 0.000184583
23 *4566:A3 *163:103 9.25014e-06
24 *4584:A *228:46 0.000108402
25 *4591:A *4590:A1 6.74815e-05
26 *4591:A *4590:B2 0.000152333
27 *4591:A *200:30 9.68957e-05
28 *4591:A *221:10 4.58192e-05
29 *4591:A *221:12 4.70078e-05
30 *161:14 *4467:A 2.84494e-05
31 *161:14 *4467:B 0.000188361
32 *161:14 *4584:B 9.25014e-06
33 *161:14 *163:10 4.25523e-05
34 *161:14 *228:46 4.08637e-05
35 *161:18 *4467:A 1.31516e-05
36 *161:18 *4584:B 8.95956e-05
37 *161:18 *4589:A2 0.00017309
38 *161:18 *163:10 0
39 *161:18 *223:51 6.58195e-05
40 *161:18 *228:59 3.17148e-05
41 *161:36 *4534:A 0
42 *161:36 *163:23 2.14757e-05
43 *161:36 *163:50 0.00012632
44 *161:36 *178:12 1.78353e-05
45 *161:36 *235:33 0.000359835
46 *161:59 *4538:A1 2.70899e-05
47 *161:59 *4587:B1 4.15592e-05
48 *161:59 *178:82 0.00052539
49 *161:59 *235:31 0.000966472
50 *161:74 *178:82 5.33433e-05
51 *161:74 *235:31 8.76257e-05
52 *161:97 *4528:A1 2.44318e-05
53 *161:97 *4528:C1 1.74352e-05
54 *161:97 *162:18 3.34672e-05
55 *161:97 *162:24 0.000136951
56 *161:97 *177:45 0.00190088
57 *161:97 *178:82 6.42095e-05
58 *161:97 *191:10 0.000210191
59 *161:97 *235:31 8.27532e-05
60 *161:110 *4473:A3 0.000440705
61 *161:110 *4576:B1 0.000125482
62 *161:110 *186:16 0.000557336
63 *4473:B1 *4566:A3 0.000195547
64 *4516:B *4566:A3 5.33005e-05
65 *4516:B *161:97 0.000123871
66 *4528:B1 *161:97 0.000164332
67 *4534:B *161:36 5.821e-05
68 *4534:C *161:36 7.83587e-05
69 *4538:B1 *161:36 0.000137983
70 *4539:A1 *161:36 0.000131347
71 *4539:A2 *161:59 0.000514588
72 *4539:B1 *4538:A2 4.46186e-06
73 *4539:B1 *161:59 2.86754e-05
74 *4539:C1 *161:36 2.09826e-05
75 *4539:C1 *161:59 2.28188e-05
76 *4543:A2 *4543:A1 8.08022e-05
77 *4545:A2 *4543:A1 1.17968e-05
78 *4566:C1 *161:110 0.000314658
79 *4577:A3 *4543:A1 0.000100236
80 *4585:A1 *161:14 6.05161e-06
81 *4589:B1 *161:18 0
82 *4590:A3 *4591:A 0
83 *4590:A3 *161:18 0
84 *4590:B1 *4591:A 5.53592e-05
85 *4590:B1 *161:18 0.00019791
86 *4591:C *4591:A 0.000107531
87 *4592:S *4591:A 0
88 *67:10 *161:36 0.000228508
89 *87:43 *161:97 0.00010326
90 *108:12 *161:59 1.61405e-05
91 *158:35 *4566:A3 1.58163e-05
*RES
1 *4467:Y *161:14 22.05 
2 *161:14 *161:18 15.5536 
3 *161:18 *161:36 36.3571 
4 *161:36 *4538:A2 14.5321 
5 *161:36 *161:59 22.6406 
6 *161:59 *4543:A1 22.7107 
7 *161:59 *161:74 0.946429 
8 *161:74 *4531:B 9.3 
9 *161:74 *161:97 43.5536 
10 *161:97 *4526:A1 15.7464 
11 *161:97 *161:110 14.0714 
12 *161:110 *4566:A3 21.3893 
13 *161:110 *4473:A1 9.3 
14 *161:18 *4591:A 23.3893 
15 *161:14 *4584:A 10.9786 
*END

*D_NET *162 0.019905
*CONN
*I *4573:B I *D sky130_fd_sc_hd__nand2_1
*I *4568:C I *D sky130_fd_sc_hd__or4_1
*I *4525:C I *D sky130_fd_sc_hd__or4_1
*I *4541:B1 I *D sky130_fd_sc_hd__a21o_1
*I *4554:A1 I *D sky130_fd_sc_hd__o21ai_1
*I *4579:A1 I *D sky130_fd_sc_hd__o211a_1
*I *4547:A1 I *D sky130_fd_sc_hd__o21a_1
*I *4468:Y O *D sky130_fd_sc_hd__nor2_4
*CAP
1 *4573:B 0
2 *4568:C 0.00154257
3 *4525:C 0
4 *4541:B1 2.52948e-05
5 *4554:A1 6.72596e-05
6 *4579:A1 0.000257403
7 *4547:A1 0.000200303
8 *4468:Y 0.000292852
9 *162:105 0.0013449
10 *162:72 0.000617721
11 *162:35 0.000421921
12 *162:24 0.000854658
13 *162:18 0.00107522
14 *162:12 0.00120574
15 *4541:B1 *178:82 5.33005e-05
16 *4547:A1 *4547:A2 0.000346515
17 *4547:A1 *217:12 9.31893e-05
18 *4568:C *4537:B 0.00105512
19 *4568:C *4568:D 5.52302e-05
20 *4568:C *245:21 0.000470543
21 *4568:C *245:25 9.77274e-05
22 *4568:C *245:27 5.52302e-05
23 *4579:A1 *4579:C1 0.00014285
24 *162:12 *4576:A2 0
25 *162:12 *164:10 0
26 *162:12 *164:14 0.000186669
27 *162:12 *230:12 0.000128161
28 *162:12 *235:10 2.61337e-05
29 *162:12 *235:25 0.000114121
30 *162:12 *238:10 3.34295e-05
31 *162:12 *238:25 0.000211913
32 *162:12 *241:43 1.50087e-05
33 *162:18 *4542:B1 0.000173083
34 *162:18 *4576:A1 0.000145618
35 *162:18 *4576:A2 0.000687865
36 *162:18 *235:25 0
37 *162:18 *244:43 0.000107756
38 *162:24 *4531:A 1.02504e-05
39 *162:24 *4547:A2 0
40 *162:24 *178:82 0.000266473
41 *162:72 *4486:A1 0.00040279
42 *162:72 *164:14 0.00141738
43 *162:105 *4473:A3 0.00016775
44 *162:105 *4550:B2 9.89015e-05
45 *162:105 *4560:B2 0.000198698
46 *162:105 *4573:A 5.52238e-05
47 *162:105 *163:103 0
48 *162:105 *182:41 0.000175526
49 *162:105 *189:8 0.000140933
50 *162:105 *217:12 4.59075e-05
51 *162:105 *245:69 0
52 *4473:B1 *162:105 0
53 *4535:B1 *162:24 7.83659e-05
54 *4542:A1 *162:24 9.22948e-05
55 *4545:A2 *162:24 6.67033e-05
56 *4545:B1 *162:24 0.000125724
57 *4551:B *162:72 5.59013e-05
58 *4555:A *162:24 0.000525377
59 *4555:A *162:35 3.34366e-05
60 *4568:B *4568:C 2.28598e-05
61 *4571:A3 *162:105 8.89733e-05
62 *4571:B1 *162:105 0.000263532
63 *4572:A3 *162:105 0
64 *4572:B1 *162:105 0
65 *4574:A2 *162:105 8.56716e-05
66 *4577:A3 *162:24 9.09249e-05
67 *4579:A2 *4579:A1 2.78584e-05
68 *4579:B1 *4579:A1 2.89016e-05
69 *4637:A *162:18 0.000118589
70 *64:10 *162:24 0
71 *64:14 *4547:A1 0.000712417
72 *64:38 *4554:A1 0
73 *64:38 *162:35 0
74 *64:49 *4579:A1 7.49387e-06
75 *87:43 *4554:A1 2.61337e-05
76 *87:43 *162:18 0
77 *87:43 *162:24 6.78336e-05
78 *87:43 *162:35 5.84171e-05
79 *149:32 *162:12 9.90367e-05
80 *149:32 *162:18 0.000155741
81 *149:32 *162:72 0.00181722
82 *158:12 *162:72 0
83 *161:97 *162:18 3.34672e-05
84 *161:97 *162:24 0.000136951
*RES
1 *4468:Y *162:12 26.2643 
2 *162:12 *162:18 23.0893 
3 *162:18 *162:24 19.3571 
4 *162:24 *4547:A1 22.1393 
5 *162:24 *162:35 1.94643 
6 *162:35 *4579:A1 17.5321 
7 *162:35 *4554:A1 15.0679 
8 *162:18 *4541:B1 9.83571 
9 *162:12 *162:72 28.3214 
10 *162:72 *4525:C 9.3 
11 *162:72 *4568:C 20.1036 
12 *4568:C *162:105 45.8 
13 *162:105 *4573:B 9.3 
*END

*D_NET *163 0.0202359
*CONN
*I *4563:A3 I *D sky130_fd_sc_hd__a31o_1
*I *4473:A2 I *D sky130_fd_sc_hd__a31o_1
*I *4526:A2 I *D sky130_fd_sc_hd__a21oi_1
*I *4576:A3 I *D sky130_fd_sc_hd__a31o_1
*I *4538:A3 I *D sky130_fd_sc_hd__a311o_1
*I *4515:B I *D sky130_fd_sc_hd__nand2_2
*I *4588:B I *D sky130_fd_sc_hd__nor2_1
*I *4469:X O *D sky130_fd_sc_hd__or2_4
*CAP
1 *4563:A3 0.00106408
2 *4473:A2 0
3 *4526:A2 0
4 *4576:A3 2.23854e-05
5 *4538:A3 0
6 *4515:B 0
7 *4588:B 0
8 *4469:X 0.000508354
9 *163:103 0.00148552
10 *163:92 0.00187587
11 *163:69 0.00197011
12 *163:50 0.0010884
13 *163:23 0.000876506
14 *163:10 0.000789748
15 *4563:A3 *4563:A2 3.57366e-05
16 *4563:A3 *4564:A1 8.71377e-05
17 *4563:A3 *4564:A2 0.000181796
18 *4563:A3 *245:69 8.48328e-05
19 *4563:A3 *245:80 0.00017275
20 *4563:A3 *245:86 0.000140933
21 *163:10 *4467:A 0
22 *163:10 *4584:B 4.51307e-05
23 *163:10 *4589:A2 0
24 *163:10 *223:51 6.39262e-05
25 *163:23 *4589:A2 9.60939e-05
26 *163:50 *4489:B 4.58194e-05
27 *163:50 *4515:A 2.08464e-05
28 *163:50 *4538:A1 5.71472e-05
29 *163:50 *4589:A2 2.44318e-05
30 *163:50 *4589:C1 0.000187042
31 *163:50 *178:16 0.000467835
32 *163:50 *183:6 0.000136048
33 *163:50 *183:23 0.00010096
34 *163:50 *235:33 0.000119548
35 *163:50 *243:68 0.000967053
36 *163:69 *4535:A1 0.000146474
37 *163:69 *4547:A2 2.84398e-05
38 *163:69 *164:74 7.73662e-05
39 *163:69 *177:49 0.00117772
40 *163:69 *183:23 0.000472725
41 *163:69 *197:68 1.24368e-05
42 *163:69 *223:34 0.000139907
43 *163:92 *4565:B1 2.28499e-05
44 *163:92 *4576:A1 9.90367e-05
45 *163:92 *4576:A2 3.82357e-05
46 *163:92 *186:16 0.000301438
47 *163:92 *191:10 2.49484e-05
48 *163:92 *193:20 0.000101545
49 *163:92 *197:68 0.000481575
50 *163:103 *170:49 0.00101809
51 *163:103 *193:20 5.52302e-05
52 *163:103 *245:69 9.46737e-05
53 *4473:B1 *4563:A3 1.81709e-05
54 *4473:B1 *163:103 1.10856e-05
55 *4526:A1 *163:92 7.83587e-05
56 *4535:B1 *163:69 0.00018372
57 *4538:B1 *163:50 6.29036e-05
58 *4538:B1 *163:69 0.000144773
59 *4564:B1 *4563:A3 0.000468903
60 *4566:A3 *4563:A3 0.000184583
61 *4566:A3 *163:103 9.25014e-06
62 *4571:B1 *163:103 0.000195386
63 *4572:A3 *4563:A3 0.000482149
64 *4577:A2 *163:50 5.52302e-05
65 *4577:A3 *163:69 7.68957e-05
66 *4585:A1 *163:10 6.97972e-05
67 *4590:A3 *163:23 0.000128154
68 *4590:B1 *163:50 6.93855e-05
69 *67:10 *163:50 5.49489e-05
70 *71:25 *163:92 0.000608147
71 *95:14 *4563:A3 3.48705e-05
72 *158:35 *163:92 0.000100118
73 *161:14 *163:10 4.25523e-05
74 *161:18 *163:10 0
75 *161:36 *163:23 2.14757e-05
76 *161:36 *163:50 0.00012632
77 *162:105 *163:103 0
*RES
1 *4469:X *163:10 23.8714 
2 *163:10 *4588:B 13.8 
3 *163:10 *163:23 9.75 
4 *163:23 *4515:B 9.3 
5 *163:23 *163:50 29.0714 
6 *163:50 *4538:A3 9.3 
7 *163:50 *163:69 27.1429 
8 *163:69 *4576:A3 9.72857 
9 *163:69 *163:92 36.3036 
10 *163:92 *4526:A2 9.3 
11 *163:92 *163:103 16.625 
12 *163:103 *4473:A2 13.8 
13 *163:103 *4563:A3 37.1393 
*END

*D_NET *164 0.0162394
*CONN
*I *4547:A2 I *D sky130_fd_sc_hd__o21a_1
*I *4535:A2 I *D sky130_fd_sc_hd__o21a_1
*I *4490:A2 I *D sky130_fd_sc_hd__o21ai_1
*I *4486:A1 I *D sky130_fd_sc_hd__o21a_1
*I *4524:A2 I *D sky130_fd_sc_hd__o22a_1
*I *4521:A3 I *D sky130_fd_sc_hd__o41a_1
*I *4470:Y O *D sky130_fd_sc_hd__nor2_4
*CAP
1 *4547:A2 0.00117844
2 *4535:A2 0
3 *4490:A2 0.000541362
4 *4486:A1 0.000545957
5 *4524:A2 9.85347e-05
6 *4521:A3 2.38696e-05
7 *4470:Y 0.000508053
8 *164:74 0.00152982
9 *164:45 0.00114379
10 *164:18 0.000203039
11 *164:14 0.00110332
12 *164:10 0.00123583
13 *4486:A1 *4486:A2 5.33433e-05
14 *4486:A1 *4503:A 0.000184745
15 *4486:A1 *4552:A 0.000433262
16 *4486:A1 *166:29 0.000228558
17 *4490:A2 *4518:B 7.2394e-05
18 *4490:A2 *4537:A 5.035e-05
19 *4490:A2 *4576:B1 0
20 *4490:A2 *193:38 2.26973e-05
21 *4490:A2 *197:68 0.000306324
22 *4490:A2 *235:25 7.79781e-06
23 *4490:A2 *243:16 9.02232e-05
24 *4490:A2 *244:6 3.69047e-06
25 *4490:A2 *244:69 1.98839e-05
26 *4521:A3 *4524:A1 5.52238e-05
27 *4521:A3 *4525:D 2.14757e-05
28 *4521:A3 *4537:B 9.71197e-05
29 *4524:A2 *4492:A3 1.02504e-05
30 *4524:A2 *4524:A1 0.000168224
31 *4524:A2 *4551:A 7.34455e-06
32 *164:10 *4470:A 0.000186662
33 *164:10 *230:12 1.74352e-05
34 *164:10 *235:25 0
35 *164:10 *241:43 0
36 *164:14 *4552:A 0.000481575
37 *164:18 *4521:A2 0.000123295
38 *164:18 *4551:A 2.26327e-05
39 *164:45 *235:25 0
40 *164:74 *4535:A1 2.19302e-05
41 *164:74 *243:12 0
42 *4539:A2 *4547:A2 0
43 *4543:A1 *4547:A2 0.000267821
44 *4545:A2 *4547:A2 5.16489e-05
45 *4547:A1 *4547:A2 0.000346515
46 *4581:A3 *4490:A2 5.52302e-05
47 *4637:A *4490:A2 2.26824e-05
48 *64:10 *4547:A2 7.8327e-05
49 *64:14 *4547:A2 1.74352e-05
50 *71:25 *4524:A2 0
51 *87:18 *164:45 0.000117388
52 *87:43 *4490:A2 2.44318e-05
53 *87:43 *164:45 1.17968e-05
54 *87:43 *164:74 2.26424e-05
55 *128:14 *164:74 0.00010326
56 *149:32 *4486:A1 0.000910248
57 *149:32 *4490:A2 2.11419e-05
58 *157:18 *4486:A1 0.000534869
59 *157:18 *164:14 0.000557525
60 *158:12 *4524:A2 0.000101761
61 *158:12 *164:18 8.359e-05
62 *162:12 *164:10 0
63 *162:12 *164:14 0.000186669
64 *162:24 *4547:A2 0
65 *162:72 *4486:A1 0.00040279
66 *162:72 *164:14 0.00141738
67 *163:69 *4547:A2 2.84398e-05
68 *163:69 *164:74 7.73662e-05
*RES
1 *4470:Y *164:10 21.8714 
2 *164:10 *164:14 23.1071 
3 *164:14 *164:18 6.75 
4 *164:18 *4521:A3 14.7464 
5 *164:18 *4524:A2 16.6571 
6 *164:14 *4486:A1 32.0143 
7 *164:10 *164:45 4.98214 
8 *164:45 *4490:A2 36.2971 
9 *164:45 *164:74 7.10714 
10 *164:74 *4535:A2 13.8 
11 *164:74 *4547:A2 34.175 
*END

*D_NET *165 0.017464
*CONN
*I *4579:C1 I *D sky130_fd_sc_hd__o211a_1
*I *4530:A1 I *D sky130_fd_sc_hd__a32o_1
*I *4473:A3 I *D sky130_fd_sc_hd__a31o_1
*I *4471:X O *D sky130_fd_sc_hd__or2_4
*CAP
1 *4579:C1 0.000300599
2 *4530:A1 0.000163989
3 *4473:A3 0.000993058
4 *4471:X 0.00133085
5 *165:14 0.00289149
6 *165:8 0.00336589
7 *4473:A3 *4550:B2 0.00019712
8 *4473:A3 *4571:B2 0.000242927
9 *4473:A3 *4669:A 0
10 *4473:A3 *186:16 2.95726e-05
11 *4530:A1 *4530:A2 1.40306e-05
12 *4579:C1 *4554:B1 0.000172536
13 *165:8 *4471:B 1.3142e-05
14 *165:8 *4490:A1 0.000706328
15 *165:8 *4492:B1 0
16 *165:8 *4518:B 0.00013615
17 *165:8 *4543:B1 0.000241205
18 *165:8 *4576:A2 3.46889e-05
19 *165:8 *197:50 0.000138955
20 *165:8 *197:68 0.000165134
21 *165:8 *238:42 0.00040746
22 *165:8 *244:43 0.000686504
23 *165:14 *217:12 0.00269939
24 *4511:A *165:8 0
25 *4511:C *165:8 6.04162e-05
26 *4555:B *4579:C1 5.10822e-05
27 *4555:B *165:8 4.02462e-05
28 *4559:A2 *165:8 0
29 *4559:B1 *165:8 0
30 *4560:B1 *165:8 6.74911e-05
31 *4566:C1 *4473:A3 0.000522445
32 *4571:B1 *4473:A3 0.000105123
33 *4574:A2 *4473:A3 0
34 *4579:A1 *4579:C1 0.00014285
35 *62:22 *4530:A1 0.000446597
36 *64:49 *4579:C1 7.11642e-05
37 *65:36 *4530:A1 0.000361914
38 *87:43 *4579:C1 5.52302e-05
39 *87:43 *165:8 0
40 *161:110 *4473:A3 0.000440705
41 *162:105 *4473:A3 0.00016775
*RES
1 *4471:X *165:8 46.1036 
2 *165:8 *165:14 34.5893 
3 *165:14 *4473:A3 36.7107 
4 *165:14 *4530:A1 19.3714 
5 *165:8 *4579:C1 20.6214 
*END

*D_NET *166 0.0159414
*CONN
*I *4530:A2 I *D sky130_fd_sc_hd__a32o_1
*I *4549:A I *D sky130_fd_sc_hd__nand2_1
*I *4564:A2 I *D sky130_fd_sc_hd__a31o_1
*I *4569:A3 I *D sky130_fd_sc_hd__a41oi_1
*I *4552:A I *D sky130_fd_sc_hd__nor2_2
*I *4472:Y O *D sky130_fd_sc_hd__nand2_4
*CAP
1 *4530:A2 0.000495604
2 *4549:A 0.000108767
3 *4564:A2 0.000601028
4 *4569:A3 0
5 *4552:A 0.000475702
6 *4472:Y 0.000276326
7 *166:61 0.00144447
8 *166:41 0.00153253
9 *166:29 0.002104
10 *166:10 0.00108442
11 *4530:A2 *4669:A 0
12 *4549:A *189:8 0.000148105
13 *4549:A *189:12 0.000195386
14 *4549:A *217:12 0.000621848
15 *4552:A *4522:B2 1.02504e-05
16 *4552:A *193:38 6.1684e-05
17 *4564:A2 *4564:A1 5.52302e-05
18 *4564:A2 *174:34 0.000204057
19 *4564:A2 *195:20 0
20 *4564:A2 *197:10 0
21 *4564:A2 *224:18 0.000243627
22 *166:10 *191:10 0
23 *166:29 *4565:B1 0.000315894
24 *166:29 *191:10 0.000136706
25 *166:41 *170:32 5.52238e-05
26 *166:41 *170:49 0.00130713
27 *166:61 *4528:C1 0
28 *166:61 *4529:A1 0
29 *166:61 *4560:A1 0
30 *166:61 *4565:B1 0.000204463
31 *166:61 *191:10 5.66564e-05
32 *4486:A1 *4552:A 0.000433262
33 *4486:A1 *166:29 0.000228558
34 *4527:A *166:29 2.39779e-05
35 *4528:B1 *166:29 0.000101545
36 *4528:B1 *166:61 0.000424931
37 *4529:B1 *166:61 0.000314458
38 *4530:A1 *4530:A2 1.40306e-05
39 *4530:B1 *4530:A2 9.49429e-05
40 *4530:B1 *166:61 0.000366752
41 *4530:B2 *4530:A2 5.76121e-05
42 *4551:B *166:29 0
43 *4562:B *166:61 8.33655e-05
44 *4563:A3 *4564:A2 0.000181796
45 *4564:B1 *4564:A2 9.60875e-05
46 *4567:A2 *4564:A2 6.0038e-05
47 *4567:A2 *166:41 5.59013e-05
48 *4570:A3 *166:41 0.000192219
49 *4570:B2 *166:41 2.59355e-05
50 *62:22 *4530:A2 6.2155e-06
51 *62:26 *4530:A2 1.92905e-05
52 *71:8 *4552:A 0
53 *71:29 *166:61 0
54 *95:14 *4564:A2 1.69961e-05
55 *102:10 *4552:A 0
56 *157:18 *4552:A 0.000494828
57 *157:18 *166:29 0.000120587
58 *157:80 *4564:A2 1.09164e-05
59 *157:80 *166:41 1.97381e-05
60 *158:12 *166:10 0
61 *158:48 *4564:A2 0.000276728
62 *164:14 *4552:A 0.000481575
*RES
1 *4472:Y *166:10 22.9786 
2 *166:10 *4552:A 32.0321 
3 *166:10 *166:29 13.7857 
4 *166:29 *166:41 26.4286 
5 *166:41 *4569:A3 13.8 
6 *166:41 *4564:A2 27.8357 
7 *166:29 *166:61 20.1607 
8 *166:61 *4549:A 19.675 
9 *166:61 *4530:A2 21.4071 
*END

*D_NET *167 0.00284273
*CONN
*I *4482:A1 I *D sky130_fd_sc_hd__a21oi_1
*I *4570:A1 I *D sky130_fd_sc_hd__a32o_1
*I *4473:X O *D sky130_fd_sc_hd__a31o_1
*CAP
1 *4482:A1 0.000799083
2 *4570:A1 3.00222e-05
3 *4473:X 0.000102774
4 *167:10 0.000931879
5 *4482:A1 *4482:B1 9.90431e-05
6 *4482:A1 *170:32 1.57414e-05
7 *4482:A1 *170:49 0.000265453
8 *4570:A1 *4570:A2 2.06112e-05
9 *4570:A1 *197:10 1.14671e-05
10 *4570:A1 *245:69 1.85696e-05
11 *167:10 *186:16 2.89016e-05
12 *167:10 *197:10 4.17721e-05
13 *167:10 *245:69 6.62243e-05
14 *4566:C1 *167:10 2.89016e-05
15 *4570:B1 *4570:A1 9.54798e-06
16 *158:73 *4482:A1 0.000372737
*RES
1 *4473:X *167:10 16.2821 
2 *167:10 *4570:A1 14.5321 
3 *167:10 *4482:A1 24.6036 
*END

*D_NET *168 0.00101786
*CONN
*I *4486:A2 I *D sky130_fd_sc_hd__o21a_1
*I *4503:B I *D sky130_fd_sc_hd__or2_4
*I *4474:X O *D sky130_fd_sc_hd__and3_1
*CAP
1 *4486:A2 9.47579e-05
2 *4503:B 0
3 *4474:X 0.000255833
4 *168:12 0.000350591
5 *4486:A2 *4486:B1 1.32019e-05
6 *4486:A1 *4486:A2 5.33433e-05
7 *4567:A1 *168:12 0
8 *151:23 *168:12 9.90431e-05
9 *157:14 *168:12 0.000133477
10 *157:80 *168:12 1.76135e-05
*RES
1 *4474:X *168:12 23.0143 
2 *168:12 *4503:B 9.3 
3 *168:12 *4486:A2 11.0857 
*END

*D_NET *169 0.00410309
*CONN
*I *4558:A I *D sky130_fd_sc_hd__or4_1
*I *4583:A2 I *D sky130_fd_sc_hd__a221o_1
*I *4533:A2 I *D sky130_fd_sc_hd__a211o_1
*I *4501:A2 I *D sky130_fd_sc_hd__o21a_4
*I *4475:X O *D sky130_fd_sc_hd__and2b_4
*CAP
1 *4558:A 0.000343867
2 *4583:A2 0.000122883
3 *4533:A2 0
4 *4501:A2 0.000123358
5 *4475:X 0.000580869
6 *169:35 0.000527437
7 *169:26 0.000518198
8 *4501:A2 *230:14 7.32955e-05
9 *4558:A *4532:A1 8.15095e-05
10 *4558:A *4583:C1 1.31516e-05
11 *4558:A *243:39 4.73656e-05
12 *4583:A2 *4583:A1 2.89114e-05
13 *4583:A2 *243:39 7.1843e-05
14 *4583:A2 *243:56 1.21258e-05
15 *169:26 *4532:A1 9.54798e-06
16 *169:26 *4536:B1_N 7.60306e-05
17 *169:26 *4587:B1 6.50156e-05
18 *169:26 *228:21 0
19 *169:26 *230:14 9.90431e-05
20 *169:26 *243:22 5.31122e-05
21 *169:26 *243:39 9.54798e-06
22 *169:35 *4532:A1 0.000196785
23 *169:35 *243:39 0.000187237
24 *4501:A1 *4501:A2 5.71472e-05
25 *4501:A1 *169:26 0.000295144
26 *4533:B1 *169:26 4.52545e-05
27 *4583:B2 *4583:A2 2.84269e-05
28 *4585:S *4583:A2 7.30708e-05
29 *4586:B1 *4583:A2 2.02165e-05
30 *128:14 *4558:A 8.43492e-05
31 *128:14 *4583:A2 0.000162857
32 *157:37 *169:26 9.54907e-05
*RES
1 *4475:X *4501:A2 21.2071 
2 *4475:X *169:26 24.8179 
3 *169:26 *4533:A2 13.8 
4 *169:26 *169:35 2.55357 
5 *169:35 *4583:A2 17.2509 
6 *169:35 *4558:A 18.9786 
*END

*D_NET *170 0.0204189
*CONN
*I *4481:A4 I *D sky130_fd_sc_hd__a41o_1
*I *4554:B1 I *D sky130_fd_sc_hd__o21ai_1
*I *4549:B I *D sky130_fd_sc_hd__nand2_1
*I *4492:A2 I *D sky130_fd_sc_hd__a31o_1
*I *4581:A2 I *D sky130_fd_sc_hd__a311o_1
*I *4569:A4 I *D sky130_fd_sc_hd__a41oi_1
*I *4476:X O *D sky130_fd_sc_hd__or3_4
*CAP
1 *4481:A4 0.000312083
2 *4554:B1 0.000589751
3 *4549:B 0
4 *4492:A2 2.23854e-05
5 *4581:A2 0.000988704
6 *4569:A4 0
7 *4476:X 0.000469794
8 *170:75 0.00156395
9 *170:51 0.00107473
10 *170:49 0.00180189
11 *170:32 0.00149404
12 *170:12 0.00151187
13 *4481:A4 *4499:A2 8.50152e-05
14 *4481:A4 *4499:B1 0.000164499
15 *4481:A4 *246:8 4.08637e-05
16 *4481:A4 *246:10 5.33005e-05
17 *4554:B1 *4512:A 4.43256e-05
18 *4554:B1 *4670:A 7.77652e-05
19 *4554:B1 *189:76 0
20 *4581:A2 *4492:B1 0.000793137
21 *4581:A2 *4576:A1 2.72804e-05
22 *4581:A2 *193:38 1.02821e-05
23 *4581:A2 *243:8 1.90303e-05
24 *4581:A2 *243:12 0.000170654
25 *170:12 *4481:A2 0.00029513
26 *170:12 *4688:A 6.07232e-05
27 *170:12 *231:12 2.60064e-05
28 *170:12 *236:10 0.000232399
29 *170:12 *236:28 0
30 *170:12 *236:39 0
31 *170:12 *237:68 0.000365674
32 *170:32 *4493:A1 0
33 *170:32 *4569:A1 5.33005e-05
34 *170:32 *4688:A 0
35 *170:32 *179:10 0.000682251
36 *170:32 *226:10 0.000305139
37 *170:32 *237:68 0
38 *170:49 *4492:A3 9.71197e-05
39 *170:49 *193:20 6.13217e-05
40 *170:49 *193:22 0.000242718
41 *170:49 *193:38 1.56e-05
42 *170:51 *4492:A3 9.90367e-05
43 *170:75 *4492:A3 1.52978e-05
44 *170:75 *4550:A1 0
45 *170:75 *4553:C1 0.00011061
46 *170:75 *189:28 0
47 *170:75 *189:76 0
48 *170:75 *197:44 1.18927e-05
49 *170:75 *223:18 0.000179137
50 *4477:A1 *170:12 0
51 *4482:A1 *170:32 1.57414e-05
52 *4482:A1 *170:49 0.000265453
53 *4485:A3 *4481:A4 1.5942e-05
54 *4492:A1 *4581:A2 2.59355e-05
55 *4492:A1 *170:49 1.98839e-05
56 *4492:A1 *170:51 2.14757e-05
57 *4499:A1 *4481:A4 0
58 *4523:B1 *170:75 0
59 *4529:A2 *170:75 3.92757e-05
60 *4550:B1 *170:75 0
61 *4560:A2 *170:75 0.00010326
62 *4560:A3 *170:75 0.00011062
63 *4570:A3 *170:49 8.88074e-05
64 *4570:B1 *170:49 3.33238e-05
65 *4570:B2 *170:32 1.21371e-05
66 *4570:B2 *170:49 2.59355e-05
67 *4579:C1 *4554:B1 0.000172536
68 *4593:B *4554:B1 0.000169359
69 *4593:C *4554:B1 0
70 *4593:C *170:75 0
71 *4637:A *4581:A2 2.89016e-05
72 *62:26 *4554:B1 0.000357048
73 *64:49 *4554:B1 0.0011904
74 *71:25 *170:75 5.72433e-05
75 *87:18 *4581:A2 4.46186e-06
76 *87:43 *4581:A2 3.69697e-05
77 *128:14 *4581:A2 3.15739e-05
78 *149:22 *4481:A4 9.41642e-05
79 *158:12 *170:75 6.8646e-06
80 *158:23 *170:75 7.49895e-05
81 *158:73 *170:32 0.000801998
82 *158:73 *170:49 1.97695e-05
83 *158:106 *170:75 4.56494e-05
84 *163:103 *170:49 0.00101809
85 *166:41 *170:32 5.52238e-05
86 *166:41 *170:49 0.00130713
*RES
1 *4476:X *170:12 29.1036 
2 *170:12 *170:32 28.3929 
3 *170:32 *4569:A4 9.3 
4 *170:32 *170:49 24.1429 
5 *170:49 *170:51 1.35714 
6 *170:51 *4581:A2 35.8714 
7 *170:51 *4492:A2 9.72857 
8 *170:49 *170:75 24.6607 
9 *170:75 *4549:B 13.8 
10 *170:75 *4554:B1 31.2643 
11 *170:12 *4481:A4 24.2821 
*END

*D_NET *171 0.00141096
*CONN
*I *4688:A I *D sky130_fd_sc_hd__buf_1
*I *4477:Y O *D sky130_fd_sc_hd__o31ai_1
*CAP
1 *4688:A 0.000285685
2 *4477:Y 0.000285685
3 *4688:A *4477:A3 9.80173e-05
4 *4688:A *231:12 0.000266092
5 *4688:A *237:68 0.000414755
6 *170:12 *4688:A 6.07232e-05
7 *170:32 *4688:A 0
*RES
1 *4477:Y *4688:A 35.35 
*END

*D_NET *172 0.00173176
*CONN
*I *4480:B1 I *D sky130_fd_sc_hd__o21a_4
*I *4479:B1 I *D sky130_fd_sc_hd__o21ai_1
*I *4478:X O *D sky130_fd_sc_hd__or2_4
*CAP
1 *4480:B1 9.1827e-05
2 *4479:B1 5.6959e-05
3 *4478:X 0.000356149
4 *172:6 0.000504935
5 *4479:B1 *4479:A2 6.05161e-06
6 *4479:B1 *173:10 7.43578e-06
7 *172:6 *4479:A2 6.42095e-05
8 *172:6 *253:12 0.000468685
9 *54:39 *4480:B1 0.000175512
*RES
1 *4478:X *172:6 18.4607 
2 *172:6 *4479:B1 10.2464 
3 *172:6 *4480:B1 20.55 
*END

*D_NET *173 0.00164012
*CONN
*I *4629:A I *D sky130_fd_sc_hd__clkbuf_1
*I *4563:B1 I *D sky130_fd_sc_hd__a31o_1
*I *4479:Y O *D sky130_fd_sc_hd__o21ai_1
*CAP
1 *4629:A 0
2 *4563:B1 0.000319255
3 *4479:Y 0.000421039
4 *173:10 0.000740294
5 *4563:B1 *4500:A2 9.25014e-06
6 *4563:B1 *4563:A2 0.00014285
7 *4563:B1 *237:68 0
8 *4479:B1 *173:10 7.43578e-06
*RES
1 *4479:Y *173:10 16.1393 
2 *173:10 *4563:B1 23.9607 
3 *173:10 *4629:A 9.3 
*END

*D_NET *174 0.00524642
*CONN
*I *4570:A2 I *D sky130_fd_sc_hd__a32o_1
*I *4569:B1 I *D sky130_fd_sc_hd__a41oi_1
*I *4566:B1 I *D sky130_fd_sc_hd__a311o_1
*I *4628:A I *D sky130_fd_sc_hd__clkbuf_1
*I *4480:X O *D sky130_fd_sc_hd__o21a_4
*CAP
1 *4570:A2 0.000236393
2 *4569:B1 0
3 *4566:B1 0.000107942
4 *4628:A 0
5 *4480:X 0.000282407
6 *174:34 0.000397822
7 *174:21 0.00125018
8 *174:12 0.00126322
9 *4570:A2 *4576:B1 9.70862e-05
10 *4570:A2 *245:69 2.21972e-05
11 *174:21 *4658:A 3.99614e-06
12 *174:21 *224:12 0.0006558
13 *174:21 *233:6 1.72894e-05
14 *174:21 *233:14 1.40415e-05
15 *4516:B *4566:B1 1.33343e-05
16 *4564:A2 *174:34 0.000204057
17 *4566:A2 *4566:B1 3.99614e-06
18 *4570:A1 *4570:A2 2.06112e-05
19 *148:23 *174:12 0
20 *157:80 *4566:B1 0.000170379
21 *157:80 *174:34 0.000403812
22 *158:48 *4566:B1 5.2072e-05
23 *158:48 *174:21 2.97829e-05
*RES
1 *4480:X *174:12 22.425 
2 *174:12 *4628:A 9.3 
3 *174:12 *174:21 17.3929 
4 *174:21 *4566:B1 11.9071 
5 *174:21 *174:34 9.78571 
6 *174:34 *4569:B1 13.8 
7 *174:34 *4570:A2 21.3762 
*END

*D_NET *175 0.00111346
*CONN
*I *4482:B1 I *D sky130_fd_sc_hd__a21oi_1
*I *4481:X O *D sky130_fd_sc_hd__a41o_1
*CAP
1 *4482:B1 0.00021138
2 *4481:X 0.00021138
3 *4482:B1 *4481:B1 8.91726e-05
4 *4482:B1 *4482:A2 0.000186662
5 *4482:B1 *4544:A1 3.17148e-05
6 *4482:B1 *226:10 0.000148189
7 *4482:A1 *4482:B1 9.90431e-05
8 *158:73 *4482:B1 0.000135923
*RES
1 *4481:X *4482:B1 33.2607 
*END

*D_NET *176 0.000828918
*CONN
*I *4493:A1 I *D sky130_fd_sc_hd__o21ai_1
*I *4482:Y O *D sky130_fd_sc_hd__a21oi_1
*CAP
1 *4493:A1 0.000289189
2 *4482:Y 0.000289189
3 *4493:A1 *4507:B2 7.50473e-05
4 *4493:A1 *4544:A1 0
5 *4493:A1 *193:20 0.000175493
6 *4493:A1 *226:10 0
7 *170:32 *4493:A1 0
*RES
1 *4482:Y *4493:A1 33.4571 
*END

*D_NET *177 0.0234115
*CONN
*I *4505:A I *D sky130_fd_sc_hd__nor2_2
*I *4571:B2 I *D sky130_fd_sc_hd__a32o_1
*I *4510:B I *D sky130_fd_sc_hd__nand2_2
*I *4484:A I *D sky130_fd_sc_hd__clkinv_2
*I *4488:B I *D sky130_fd_sc_hd__nor2_1
*I *4520:B I *D sky130_fd_sc_hd__nand2_1
*I *4487:B1 I *D sky130_fd_sc_hd__o21ai_1
*I *4483:X O *D sky130_fd_sc_hd__mux2_8
*CAP
1 *4505:A 0
2 *4571:B2 9.25994e-05
3 *4510:B 0.00015108
4 *4484:A 0.000201947
5 *4488:B 0
6 *4520:B 0.000212092
7 *4487:B1 0.000170555
8 *4483:X 0.00126938
9 *177:70 0.000223965
10 *177:66 0.000417826
11 *177:49 0.00125588
12 *177:45 0.002084
13 *177:33 0.00217396
14 *177:20 0.00182461
15 *177:12 0.00212703
16 *4487:B1 *4507:B2 0
17 *4487:B1 *195:20 0.000317602
18 *4510:B *4510:A 1.31516e-05
19 *4520:B *4583:C1 0
20 *4520:B *223:34 5.52238e-05
21 *177:12 *4483:A1 0.000202835
22 *177:20 *4507:A1 0
23 *177:20 *4507:B2 0
24 *177:20 *190:18 0.000412764
25 *177:20 *190:22 0.000283734
26 *177:20 *195:20 0.000561049
27 *177:33 *191:23 0.00116299
28 *177:45 *4517:C1 4.72818e-05
29 *177:45 *4528:A1 0.000306317
30 *177:45 *191:23 0.000663738
31 *177:45 *223:20 0.000354111
32 *177:45 *223:22 0.00109303
33 *177:45 *223:34 0.000130079
34 *4473:A3 *4571:B2 0.000242927
35 *4516:B *177:45 5.01213e-05
36 *4517:B1 *177:45 0.000266479
37 *4535:B1 *177:45 0.00018077
38 *4535:B1 *177:49 1.5424e-05
39 *4538:A2 *4520:B 0
40 *4538:B1 *4520:B 3.34366e-05
41 *4538:B1 *177:66 0.000209629
42 *4539:A1 *4520:B 0
43 *4558:C *4520:B 7.83366e-05
44 *4571:B1 *4571:B2 0.000124967
45 *4577:A1 *4484:A 0.000186662
46 *4577:A2 *4484:A 6.87574e-05
47 *4577:A3 *4484:A 1.5424e-05
48 *4577:A3 *177:70 5.52238e-05
49 *4578:A2 *4510:B 0.000363238
50 *4578:A2 *4520:B 5.84171e-05
51 *4578:A2 *177:66 0.000263366
52 *4578:B1 *4484:A 5.52238e-05
53 *4578:B1 *4510:B 2.37761e-05
54 *63:10 *4510:B 0.000157211
55 *63:10 *177:66 4.46186e-06
56 *71:29 *177:45 4.78056e-05
57 *148:37 *177:45 2.24195e-05
58 *161:97 *177:45 0.00190088
59 *163:69 *177:49 0.00117772
*RES
1 *4483:X *177:12 40.2821 
2 *177:12 *177:20 20.0536 
3 *177:20 *4487:B1 17.8714 
4 *177:20 *177:33 15.7143 
5 *177:33 *177:45 41.8214 
6 *177:45 *177:49 16.125 
7 *177:49 *4520:B 17.8 
8 *177:49 *177:66 5.03571 
9 *177:66 *177:70 5.03571 
10 *177:70 *4488:B 9.3 
11 *177:70 *4484:A 13.5679 
12 *177:66 *4510:B 18.7821 
13 *177:33 *4571:B2 21.4607 
14 *177:12 *4505:A 9.3 
*END

*D_NET *178 0.0126272
*CONN
*I *4523:B2 I *D sky130_fd_sc_hd__o22a_1
*I *4575:B1 I *D sky130_fd_sc_hd__a21o_1
*I *4506:A I *D sky130_fd_sc_hd__nand2_1
*I *4586:A1 I *D sky130_fd_sc_hd__o21a_1
*I *4489:B I *D sky130_fd_sc_hd__nand2_2
*I *4484:Y O *D sky130_fd_sc_hd__clkinv_2
*CAP
1 *4523:B2 0
2 *4575:B1 0
3 *4506:A 0.000564206
4 *4586:A1 0.000298337
5 *4489:B 6.8886e-05
6 *4484:Y 0
7 *178:82 0.000992312
8 *178:27 0.000862542
9 *178:16 0.000242318
10 *178:12 0.000459329
11 *178:4 0.00127821
12 *4489:B *183:6 4.58194e-05
13 *4506:A *4589:C1 7.12029e-06
14 *4506:A *189:45 0.000313191
15 *4506:A *223:75 2.36422e-05
16 *4586:A1 *223:75 0.000146071
17 *178:12 *4534:A 0
18 *178:16 *183:6 0.000426046
19 *178:82 *4523:A1 0.00066861
20 *178:82 *4534:A 0.000136006
21 *178:82 *4541:A1 5.33005e-05
22 *178:82 *182:41 0.00171287
23 *178:82 *235:31 4.54337e-05
24 *4523:A2 *178:82 5.62995e-05
25 *4534:B *178:12 5.49257e-05
26 *4534:C *178:12 5.7616e-05
27 *4539:A2 *178:82 0.000150667
28 *4539:B1 *178:82 6.59012e-07
29 *4539:C1 *178:82 5.92185e-05
30 *4541:A2 *178:82 0.000149259
31 *4541:B1 *178:82 5.33005e-05
32 *4546:A2 *178:12 0
33 *4546:A2 *178:82 3.69697e-05
34 *4577:A2 *178:12 0.000266099
35 *4585:S *4586:A1 9.77181e-05
36 *4586:B1 *4586:A1 0.000183015
37 *4589:B1 *4586:A1 0.000200269
38 *4591:C *4506:A 0.000129175
39 *67:10 *4506:A 6.19181e-05
40 *67:22 *178:12 0.000230482
41 *67:22 *178:82 0.000139907
42 *83:10 *178:12 5.80706e-06
43 *134:12 *178:12 2.39779e-05
44 *158:106 *178:82 0.000884732
45 *161:36 *178:12 1.78353e-05
46 *161:59 *178:82 0.00052539
47 *161:74 *178:82 5.33433e-05
48 *161:97 *178:82 6.42095e-05
49 *162:24 *178:82 0.000266473
50 *163:50 *4489:B 4.58194e-05
51 *163:50 *178:16 0.000467835
*RES
1 *4484:Y *178:4 9.3 
2 *178:4 *178:12 15.25 
3 *178:12 *178:16 7.94643 
4 *178:16 *4489:B 10.675 
5 *178:16 *178:27 4.5 
6 *178:27 *4586:A1 21.2107 
7 *178:27 *4506:A 24.8714 
8 *178:12 *4575:B1 9.3 
9 *178:4 *178:82 42 
10 *178:82 *4523:B2 9.3 
*END

*D_NET *179 0.0102759
*CONN
*I *4487:A1 I *D sky130_fd_sc_hd__o21ai_1
*I *4576:B1 I *D sky130_fd_sc_hd__a31o_1
*I *4485:X O *D sky130_fd_sc_hd__a31o_1
*CAP
1 *4487:A1 6.75954e-06
2 *4576:B1 0.00338425
3 *4485:X 0.000880629
4 *179:10 0.00427164
5 *4487:A1 *4487:A2 2.06178e-05
6 *4576:B1 *4576:A1 2.06178e-05
7 *4576:B1 *186:16 0.000141343
8 *4576:B1 *193:20 0.000132088
9 *179:10 *4487:A2 0.000223672
10 *179:10 *4569:A1 5.58941e-05
11 *4490:A2 *4576:B1 0
12 *4567:A2 *179:10 2.49484e-05
13 *4570:A2 *4576:B1 9.70862e-05
14 *87:43 *4576:B1 1.21955e-05
15 *158:48 *4487:A1 5.58875e-06
16 *158:48 *179:10 6.40275e-05
17 *158:73 *179:10 0.000126837
18 *161:110 *4576:B1 0.000125482
19 *170:32 *179:10 0.000682251
*RES
1 *4485:X *179:10 27.6125 
2 *179:10 *4576:B1 27.5739 
3 *179:10 *4487:A1 14.0768 
*END

*D_NET *180 0.00195019
*CONN
*I *4487:A2 I *D sky130_fd_sc_hd__o21ai_1
*I *4486:X O *D sky130_fd_sc_hd__o21a_1
*CAP
1 *4487:A2 0.000350983
2 *4486:X 0.000350983
3 *4487:A2 *4486:B1 7.43578e-06
4 *4487:A2 *4569:A1 5.84267e-05
5 *4487:A2 *195:20 0.000686788
6 *4487:A2 *246:16 9.65171e-05
7 *4487:A1 *4487:A2 2.06178e-05
8 *4567:A1 *4487:A2 0.000154762
9 *179:10 *4487:A2 0.000223672
*RES
1 *4486:X *4487:A2 37.475 
*END

*D_NET *181 0.000279547
*CONN
*I *4493:A2 I *D sky130_fd_sc_hd__o21ai_1
*I *4487:Y O *D sky130_fd_sc_hd__o21ai_1
*CAP
1 *4493:A2 7.95816e-05
2 *4487:Y 7.95816e-05
3 *4493:A2 *4507:B2 5.71472e-05
4 *4493:A2 *186:16 3.67257e-05
5 *4493:A2 *193:20 2.65105e-05
*RES
1 *4487:Y *4493:A2 20.3679 
*END

*D_NET *182 0.0106586
*CONN
*I *4571:A1 I *D sky130_fd_sc_hd__a32o_1
*I *4534:A I *D sky130_fd_sc_hd__nand3_1
*I *4488:Y O *D sky130_fd_sc_hd__nor2_1
*CAP
1 *4571:A1 0
2 *4534:A 0.000309946
3 *4488:Y 0
4 *182:41 0.00212268
5 *182:35 0.00229596
6 *182:4 0.000483221
7 *4534:A *235:31 4.18709e-05
8 *4534:A *235:33 9.41642e-05
9 *182:35 *4587:B1 0.000103253
10 *182:41 *4523:A1 0.000370957
11 *4523:A2 *182:41 0.000743439
12 *4538:B1 *4534:A 4.61329e-05
13 *4539:A1 *4534:A 0.000165968
14 *4539:A2 *4534:A 3.50575e-06
15 *4539:A2 *182:41 0.00013727
16 *4539:B1 *4534:A 6.65731e-06
17 *4539:C1 *4534:A 6.27272e-06
18 *4542:A3 *182:41 5.71472e-05
19 *4571:B1 *182:41 0.000173812
20 *67:22 *4534:A 0.000139913
21 *67:22 *182:35 0.000177815
22 *108:12 *182:35 5.10822e-05
23 *148:37 *182:41 0.00104717
24 *148:45 *182:41 5.59728e-05
25 *161:36 *4534:A 0
26 *162:105 *182:41 0.000175526
27 *178:12 *4534:A 0
28 *178:82 *4534:A 0.000136006
29 *178:82 *182:41 0.00171287
*RES
1 *4488:Y *182:4 9.3 
2 *182:4 *4534:A 33.4429 
3 *182:4 *182:35 12.1071 
4 *182:35 *182:41 48.7679 
5 *182:41 *4571:A1 13.8 
*END

*D_NET *183 0.0111609
*CONN
*I *4556:B1 I *D sky130_fd_sc_hd__a31o_1
*I *4523:A1 I *D sky130_fd_sc_hd__o22a_1
*I *4492:B1 I *D sky130_fd_sc_hd__a31o_1
*I *4583:C1 I *D sky130_fd_sc_hd__a221o_1
*I *4489:Y O *D sky130_fd_sc_hd__nand2_2
*CAP
1 *4556:B1 0.000113471
2 *4523:A1 9.63715e-05
3 *4492:B1 0.000530318
4 *4583:C1 0.000170508
5 *4489:Y 0.00083853
6 *183:36 0.000364631
7 *183:23 0.00126863
8 *183:6 0.00159256
9 *4492:B1 *193:38 7.3237e-05
10 *4492:B1 *197:68 3.0285e-05
11 *4583:C1 *4532:A1 4.52517e-05
12 *4583:C1 *243:39 3.34295e-05
13 *183:23 *4535:A1 9.60875e-05
14 *183:23 *223:22 0.000178865
15 *183:23 *223:34 0.000353086
16 *183:36 *197:68 4.84078e-05
17 *4489:B *183:6 4.58194e-05
18 *4520:B *4583:C1 0
19 *4535:B1 *183:23 0.000102474
20 *4538:C1 *4583:C1 5.91379e-05
21 *4539:A1 *4583:C1 3.69697e-05
22 *4556:A1 *4556:B1 1.02504e-05
23 *4556:A2 *4556:B1 9.3977e-05
24 *4556:A2 *183:36 2.84494e-05
25 *4558:A *4583:C1 1.31516e-05
26 *4581:A2 *4492:B1 0.000793137
27 *88:12 *4583:C1 6.95627e-05
28 *102:10 *4492:B1 0
29 *102:14 *183:23 0.00189897
30 *163:50 *183:6 0.000136048
31 *163:50 *183:23 0.00010096
32 *163:69 *183:23 0.000472725
33 *165:8 *4492:B1 0
34 *178:16 *183:6 0.000426046
35 *178:82 *4523:A1 0.00066861
36 *182:41 *4523:A1 0.000370957
*RES
1 *4489:Y *183:6 20.5143 
2 *183:6 *4583:C1 22.3714 
3 *183:6 *183:23 26.4107 
4 *183:23 *4492:B1 25.9964 
5 *183:23 *183:36 2.85714 
6 *183:36 *4523:A1 20.0857 
7 *183:36 *4556:B1 16.3536 
*END

*D_NET *184 0.00335665
*CONN
*I *4524:B1 I *D sky130_fd_sc_hd__o22a_1
*I *4492:A3 I *D sky130_fd_sc_hd__a31o_1
*I *4522:B2 I *D sky130_fd_sc_hd__a32o_1
*I *4490:Y O *D sky130_fd_sc_hd__o21ai_1
*CAP
1 *4524:B1 6.17667e-05
2 *4492:A3 0.000147516
3 *4522:B2 2.74986e-05
4 *4490:Y 0.000379634
5 *184:21 0.00048586
6 *184:6 0.000683709
7 *4522:B2 *193:38 5.58941e-05
8 *4524:B1 *4524:B2 3.93247e-05
9 *4524:B1 *4551:A 1.95962e-05
10 *184:6 *4518:A 0.000144773
11 *184:6 *244:69 5.71472e-05
12 *184:21 *4524:B2 5.56825e-05
13 *4492:A1 *4492:A3 0.00018372
14 *4522:A2 *184:6 0.00014285
15 *4522:A2 *184:21 0.00016834
16 *4523:B1 *184:21 9.60939e-05
17 *4524:A2 *4492:A3 1.02504e-05
18 *4552:A *4522:B2 1.02504e-05
19 *70:8 *184:6 0.000203916
20 *71:25 *4492:A3 0
21 *102:10 *4522:B2 0
22 *158:12 *4492:A3 0.000171375
23 *170:49 *4492:A3 9.71197e-05
24 *170:51 *4492:A3 9.90367e-05
25 *170:75 *4492:A3 1.52978e-05
*RES
1 *4490:Y *184:6 17.2286 
2 *184:6 *4522:B2 19.0321 
3 *184:6 *184:21 5.07143 
4 *184:21 *4492:A3 22.3179 
5 *184:21 *4524:B1 10.675 
*END

*D_NET *185 0.00461879
*CONN
*I *4524:B2 I *D sky130_fd_sc_hd__o22a_1
*I *4525:D I *D sky130_fd_sc_hd__or4_1
*I *4521:A4 I *D sky130_fd_sc_hd__o41a_1
*I *4491:X O *D sky130_fd_sc_hd__and2_4
*CAP
1 *4524:B2 0.000161459
2 *4525:D 9.33776e-05
3 *4521:A4 0
4 *4491:X 0.000233702
5 *185:19 0.000297265
6 *185:10 0.00027613
7 *4524:B2 *4524:A1 1.17968e-05
8 *4524:B2 *4551:A 0.000279678
9 *4525:D *4521:B1 0.000437756
10 *4525:D *4524:A1 9.60939e-05
11 *4525:D *4537:B 1.21258e-05
12 *4525:D *245:27 0.000273269
13 *185:10 *4551:A 0.000282984
14 *185:10 *195:12 0.000840912
15 *185:10 *235:86 0.000842836
16 *185:19 *4551:A 0.000105689
17 *4521:A3 *4525:D 2.14757e-05
18 *4524:B1 *4524:B2 3.93247e-05
19 *71:8 *4524:B2 6.39901e-05
20 *71:8 *185:10 0.000140085
21 *71:8 *185:19 5.31541e-05
22 *184:21 *4524:B2 5.56825e-05
*RES
1 *4491:X *185:10 25.4964 
2 *185:10 *4521:A4 13.8 
3 *185:10 *185:19 1.33929 
4 *185:19 *4525:D 18.0321 
5 *185:19 *4524:B2 18.05 
*END

*D_NET *186 0.00587182
*CONN
*I *4493:B1 I *D sky130_fd_sc_hd__o21ai_1
*I *4492:X O *D sky130_fd_sc_hd__a31o_1
*CAP
1 *4493:B1 0
2 *4492:X 0.00109658
3 *186:16 0.00109658
4 *186:16 *4565:B1 0.000151341
5 *186:16 *193:20 0.00172564
6 *186:16 *193:22 0.00044366
7 *186:16 *193:38 0.000181796
8 *4473:A3 *186:16 2.95726e-05
9 *4493:A2 *186:16 3.67257e-05
10 *4566:C1 *186:16 7.28047e-05
11 *4576:B1 *186:16 0.000141343
12 *71:29 *186:16 8.10363e-06
13 *161:110 *186:16 0.000557336
14 *163:92 *186:16 0.000301438
15 *167:10 *186:16 2.89016e-05
*RES
1 *4492:X *186:16 46.0857 
2 *186:16 *4493:B1 9.3 
*END

*D_NET *187 0.00192243
*CONN
*I *4507:B2 I *D sky130_fd_sc_hd__a32o_1
*I *4493:Y O *D sky130_fd_sc_hd__o21ai_1
*CAP
1 *4507:B2 0.000841378
2 *4493:Y 0.000841378
3 *4507:B2 *4500:A1 0
4 *4507:B2 *4507:A1 0.000103862
5 *4507:B2 *4544:A1 0
6 *4507:B2 *193:20 3.61629e-06
7 *4507:B2 *224:12 0
8 *4487:B1 *4507:B2 0
9 *4493:A1 *4507:B2 7.50473e-05
10 *4493:A2 *4507:B2 5.71472e-05
11 *95:12 *4507:B2 0
12 *177:20 *4507:B2 0
*RES
1 *4493:Y *4507:B2 41.5464 
*END

*D_NET *188 0.00105597
*CONN
*I *4496:B1 I *D sky130_fd_sc_hd__o21ai_2
*I *4495:B1 I *D sky130_fd_sc_hd__o21a_4
*I *4494:X O *D sky130_fd_sc_hd__or2_4
*CAP
1 *4496:B1 0.000122262
2 *4495:B1 0.000135031
3 *4494:X 0.00027069
4 *188:10 0.000527983
5 *4496:B1 *4495:A1 0
6 *4496:B1 *4495:A2 0
7 *188:10 *4573:A 0
*RES
1 *4494:X *188:10 18.1214 
2 *188:10 *4495:B1 15.9786 
3 *188:10 *4496:B1 15.7464 
*END

*D_NET *189 0.0199535
*CONN
*I *4529:A1 I *D sky130_fd_sc_hd__o21ai_1
*I *4593:A I *D sky130_fd_sc_hd__and3_1
*I *4512:A I *D sky130_fd_sc_hd__and2_4
*I *4546:A1 I *D sky130_fd_sc_hd__o22a_1
*I *4506:B I *D sky130_fd_sc_hd__nand2_1
*I *4590:B2 I *D sky130_fd_sc_hd__o32a_1
*I *4577:B1 I *D sky130_fd_sc_hd__a31o_1
*I *4495:X O *D sky130_fd_sc_hd__o21a_4
*CAP
1 *4529:A1 0.000466135
2 *4593:A 0
3 *4512:A 0.000298272
4 *4546:A1 0
5 *4506:B 2.23854e-05
6 *4590:B2 0.000105954
7 *4577:B1 8.25583e-05
8 *4495:X 0.00173947
9 *189:76 0.000434739
10 *189:45 0.00101087
11 *189:32 0.00110309
12 *189:28 0.00105599
13 *189:12 0.00134759
14 *189:8 0.00249874
15 *4529:A1 *4528:C1 0.000129263
16 *4529:A1 *4560:A1 6.1684e-05
17 *4529:A1 *223:14 9.60875e-05
18 *4529:A1 *224:40 0.000131409
19 *4590:B2 *4590:A1 5.52302e-05
20 *189:8 *4573:A 0.00112561
21 *189:8 *217:12 0.000276815
22 *189:12 *217:12 0.000130733
23 *189:28 *4546:B2 3.99614e-06
24 *189:28 *4578:A1 2.89114e-05
25 *189:28 *197:50 0.000882808
26 *189:28 *221:12 0.00134546
27 *189:45 *4590:A1 4.3537e-05
28 *4506:A *189:45 0.000313191
29 *4512:B *4512:A 0.000342502
30 *4538:B1 *4577:B1 0
31 *4546:A2 *4577:B1 0.000150625
32 *4546:A2 *189:32 0.000166269
33 *4546:B1 *189:45 4.87995e-05
34 *4549:A *189:8 0.000148105
35 *4549:A *189:12 0.000195386
36 *4550:B1 *4529:A1 0
37 *4553:A2 *4529:A1 0.000115474
38 *4553:B1 *4529:A1 0
39 *4554:B1 *4512:A 4.43256e-05
40 *4554:B1 *189:76 0
41 *4560:A3 *4529:A1 0
42 *4560:B1 *189:28 8.18783e-05
43 *4561:B1 *189:28 0.000200413
44 *4561:B1 *189:76 0.000187726
45 *4561:B2 *4512:A 1.81709e-05
46 *4571:A2 *4529:A1 5.22045e-05
47 *4578:A2 *189:28 0.000141975
48 *4578:B1 *4577:B1 0
49 *4578:B1 *189:32 0
50 *4590:B1 *4590:B2 5.80706e-06
51 *4591:A *4590:B2 0.000152333
52 *4591:B *189:32 3.48235e-05
53 *4591:C *4590:B2 0
54 *62:26 *4512:A 5.33005e-05
55 *62:26 *189:76 5.33005e-05
56 *62:32 *4512:A 1.76135e-05
57 *63:10 *4577:B1 0
58 *63:43 *189:28 0.001397
59 *71:29 *4529:A1 3.34366e-05
60 *99:8 *189:12 0.000186662
61 *108:12 *189:28 0.0011836
62 *148:51 *4529:A1 1.02504e-05
63 *162:105 *189:8 0.000140933
64 *166:61 *4529:A1 0
65 *170:75 *189:28 0
66 *170:75 *189:76 0
*RES
1 *4495:X *189:8 43.1214 
2 *189:8 *189:12 11.1964 
3 *189:12 *189:28 39.1786 
4 *189:28 *189:32 7.66071 
5 *189:32 *4577:B1 15.7464 
6 *189:32 *189:45 19 
7 *189:45 *4590:B2 20.7821 
8 *189:45 *4506:B 9.72857 
9 *189:28 *4546:A1 9.3 
10 *189:12 *189:76 7.58929 
11 *189:76 *4512:A 24.9429 
12 *189:76 *4593:A 9.3 
13 *189:8 *4529:A1 28.4786 
*END

*D_NET *190 0.00764303
*CONN
*I *4505:B I *D sky130_fd_sc_hd__nor2_2
*I *4507:B1 I *D sky130_fd_sc_hd__a32o_1
*I *4572:B2 I *D sky130_fd_sc_hd__a32o_1
*I *4560:B2 I *D sky130_fd_sc_hd__a32o_1
*I *4496:Y O *D sky130_fd_sc_hd__o21ai_2
*CAP
1 *4505:B 0
2 *4507:B1 4.00512e-05
3 *4572:B2 0
4 *4560:B2 0.000837551
5 *4496:Y 0.0010233
6 *190:22 0.00116275
7 *190:18 0.000466737
8 *190:14 0.00112478
9 *4507:B1 *199:14 1.2747e-05
10 *4560:B2 *4560:A1 0.000122091
11 *4560:B2 *199:28 5.52302e-05
12 *4560:B2 *224:30 1.74352e-05
13 *190:14 *4496:A2 1.3701e-05
14 *190:14 *4507:A1 0
15 *190:14 *4573:A 0
16 *190:18 *199:14 0.000107683
17 *190:22 *4504:A1 4.43256e-05
18 *190:22 *4504:A2 0.000227532
19 *190:22 *4504:B1 0.000186669
20 *190:22 *4507:A1 3.82227e-06
21 *190:22 *4507:A2 3.94081e-05
22 *190:22 *195:20 0.000184745
23 *190:22 *199:14 3.74604e-06
24 *190:22 *199:24 0.000309877
25 *190:22 *199:28 3.98905e-05
26 *190:22 *224:30 0.000556211
27 *4572:B1 *4560:B2 2.8266e-06
28 *4572:B1 *190:22 1.1671e-05
29 *4574:A2 *4560:B2 0.000153047
30 *162:105 *4560:B2 0.000198698
31 *177:20 *190:18 0.000412764
32 *177:20 *190:22 0.000283734
*RES
1 *4496:Y *190:14 32.3357 
2 *190:14 *190:18 4.4375 
3 *190:18 *190:22 12.8839 
4 *190:22 *4560:B2 33.8357 
5 *190:22 *4572:B2 9.3 
6 *190:18 *4507:B1 10.2464 
7 *190:14 *4505:B 9.3 
*END

*D_NET *191 0.00895312
*CONN
*I *4544:A2 I *D sky130_fd_sc_hd__a21oi_2
*I *4500:A1 I *D sky130_fd_sc_hd__a2111o_1
*I *4498:B I *D sky130_fd_sc_hd__nor2_1
*I *4517:C1 I *D sky130_fd_sc_hd__o211a_1
*I *4497:X O *D sky130_fd_sc_hd__or3b_4
*CAP
1 *4544:A2 0
2 *4500:A1 9.24047e-05
3 *4498:B 0
4 *4517:C1 1.81348e-05
5 *4497:X 0.0010295
6 *191:30 0.000111162
7 *191:23 0.000698156
8 *191:10 0.00172703
9 *4500:A1 *4500:B1 8.00806e-05
10 *4500:A1 *224:12 2.47093e-05
11 *191:10 *231:35 3.5707e-05
12 *4507:B2 *4500:A1 0
13 *4517:B1 *191:23 0
14 *4526:A1 *191:10 0.000146618
15 *4527:A *191:10 0.00012501
16 *4528:B1 *191:10 0.000221149
17 *95:12 *4500:A1 0.000222885
18 *148:29 *191:23 4.5622e-05
19 *148:29 *191:30 5.52238e-05
20 *148:33 *191:23 0.00138499
21 *148:37 *4517:C1 9.90367e-05
22 *148:37 *191:23 0.00053318
23 *161:97 *191:10 0.000210191
24 *163:92 *191:10 2.49484e-05
25 *166:10 *191:10 0
26 *166:29 *191:10 0.000136706
27 *166:61 *191:10 5.66564e-05
28 *177:33 *191:23 0.00116299
29 *177:45 *4517:C1 4.72818e-05
30 *177:45 *191:23 0.000663738
*RES
1 *4497:X *191:10 39.3714 
2 *191:10 *4517:C1 10.2464 
3 *191:10 *191:23 24.3929 
4 *191:23 *4498:B 9.3 
5 *191:23 *191:30 0.535714 
6 *191:30 *4500:A1 21.1571 
7 *191:30 *4544:A2 9.3 
*END

*D_NET *192 0.000182986
*CONN
*I *4500:B1 I *D sky130_fd_sc_hd__a2111o_1
*I *4498:Y O *D sky130_fd_sc_hd__nor2_1
*CAP
1 *4500:B1 3.1815e-05
2 *4498:Y 3.1815e-05
3 *4500:B1 *224:12 3.92757e-05
4 *4500:A1 *4500:B1 8.00806e-05
*RES
1 *4498:Y *4500:B1 28.6357 
*END

*D_NET *193 0.0172915
*CONN
*I *4500:A2 I *D sky130_fd_sc_hd__a2111o_1
*I *4526:B1 I *D sky130_fd_sc_hd__a21oi_1
*I *4550:A1 I *D sky130_fd_sc_hd__a221o_1
*I *4553:A1 I *D sky130_fd_sc_hd__a211o_1
*I *4581:C1 I *D sky130_fd_sc_hd__a311o_1
*I *4499:Y O *D sky130_fd_sc_hd__a21oi_4
*CAP
1 *4500:A2 0.000534674
2 *4526:B1 0
3 *4550:A1 0.000125361
4 *4553:A1 0
5 *4581:C1 0
6 *4499:Y 0.000185837
7 *193:47 0.000545225
8 *193:38 0.00131049
9 *193:22 0.00192614
10 *193:20 0.00236927
11 *193:8 0.00289399
12 *4500:A2 *4687:A 7.48091e-05
13 *4500:A2 *234:6 9.7659e-05
14 *4500:A2 *237:68 0
15 *4550:A1 *4553:C1 1.17968e-05
16 *4550:A1 *197:44 0.000183211
17 *4550:A1 *224:40 0
18 *193:8 *4499:B1 0.000148189
19 *193:8 *233:14 4.97121e-06
20 *193:8 *233:22 8.16036e-05
21 *193:8 *237:68 0
22 *193:38 *4514:A 7.6644e-05
23 *193:38 *4514:B 0.000344225
24 *193:38 *4522:A1 0.000124957
25 *193:38 *4537:B 0.000258391
26 *193:47 *4553:C1 0.000100009
27 *193:47 *223:18 0.000118179
28 *4485:A1 *4500:A2 3.34366e-05
29 *4485:A1 *193:8 0.000126439
30 *4485:A3 *193:8 0.000314458
31 *4490:A2 *193:38 2.26973e-05
32 *4492:A1 *193:38 0.000310292
33 *4492:B1 *193:38 7.3237e-05
34 *4493:A1 *193:20 0.000175493
35 *4493:A2 *193:20 2.65105e-05
36 *4507:B2 *193:20 3.61629e-06
37 *4516:B *193:47 9.10431e-06
38 *4522:B1 *193:38 0.00010326
39 *4522:B2 *193:38 5.58941e-05
40 *4528:A2 *193:47 0.000141284
41 *4552:A *193:38 6.1684e-05
42 *4553:B1 *4550:A1 5.80706e-06
43 *4553:B1 *193:47 0.000283204
44 *4563:B1 *4500:A2 9.25014e-06
45 *4576:B1 *193:20 0.000132088
46 *4581:A2 *193:38 1.02821e-05
47 *4581:B1 *193:38 0.000127439
48 *71:8 *193:38 0
49 *71:29 *193:47 0
50 *102:10 *193:38 0
51 *148:23 *4500:A2 0.000431813
52 *149:32 *193:38 1.4396e-05
53 *158:23 *193:47 0.000215441
54 *158:106 *193:47 0.000261227
55 *163:92 *193:20 0.000101545
56 *163:103 *193:20 5.52302e-05
57 *170:49 *193:20 6.13217e-05
58 *170:49 *193:22 0.000242718
59 *170:49 *193:38 1.56e-05
60 *170:75 *4550:A1 0
61 *186:16 *193:20 0.00172564
62 *186:16 *193:22 0.00044366
63 *186:16 *193:38 0.000181796
*RES
1 *4499:Y *193:8 19.6929 
2 *193:8 *193:20 43.4286 
3 *193:20 *193:22 5.875 
4 *193:22 *193:38 41 
5 *193:38 *4581:C1 9.3 
6 *193:22 *193:47 16.1607 
7 *193:47 *4553:A1 13.8 
8 *193:47 *4550:A1 16.6571 
9 *193:20 *4526:B1 9.3 
10 *193:8 *4500:A2 25.5321 
*END

*D_NET *194 0.00108951
*CONN
*I *4507:A1 I *D sky130_fd_sc_hd__a32o_1
*I *4500:X O *D sky130_fd_sc_hd__a2111o_1
*CAP
1 *4507:A1 0.000438519
2 *4500:X 0.000438519
3 *4507:A1 *4513:B2 0
4 *4507:A1 *199:14 1.76039e-05
5 *4500:C1 *4507:A1 8.71847e-05
6 *4507:B2 *4507:A1 0.000103862
7 *177:20 *4507:A1 0
8 *190:14 *4507:A1 0
9 *190:22 *4507:A1 3.82227e-06
*RES
1 *4500:X *4507:A1 34.5866 
*END

*D_NET *195 0.0166286
*CONN
*I *4513:B2 I *D sky130_fd_sc_hd__a22o_1
*I *4504:A2 I *D sky130_fd_sc_hd__o211ai_1
*I *4501:X O *D sky130_fd_sc_hd__o21a_4
*CAP
1 *4513:B2 0.000384767
2 *4504:A2 0.000151145
3 *4501:X 0.000215244
4 *195:20 0.00167373
5 *195:12 0.00472467
6 *195:10 0.0038021
7 *4513:B2 *4504:A1 0
8 *4513:B2 *4504:C1 2.84494e-05
9 *4513:B2 *4513:A1 0.000176374
10 *4513:B2 *4665:A 0
11 *4513:B2 *199:14 0
12 *195:10 *4501:B1 0
13 *195:12 *4491:A 2.89114e-05
14 *195:12 *4519:C 4.58194e-05
15 *195:12 *4660:A 2.05612e-05
16 *195:12 *4661:A 5.03772e-05
17 *195:12 *235:79 9.22103e-06
18 *195:12 *235:86 0.000143625
19 *195:12 *237:29 0.000628908
20 *195:12 *238:38 0.000102679
21 *195:12 *241:43 0.00101425
22 *195:20 *224:18 0
23 *4466:A *195:12 0.00045506
24 *4487:A2 *195:20 0.000686788
25 *4487:B1 *195:20 0.000317602
26 *4501:A1 *195:10 0
27 *4507:A1 *4513:B2 0
28 *4564:A2 *195:20 0
29 *4567:A1 *195:20 0.000100735
30 *62:14 *4513:B2 0
31 *150:10 *195:12 5.33433e-05
32 *158:48 *195:20 0
33 *177:20 *195:20 0.000561049
34 *185:10 *195:12 0.000840912
35 *190:22 *4504:A2 0.000227532
36 *190:22 *195:20 0.000184745
*RES
1 *4501:X *195:10 21.7643 
2 *195:10 *195:12 50.2321 
3 *195:12 *195:20 33.6607 
4 *195:20 *4504:A2 11.4786 
5 *195:20 *4513:B2 26.3179 
*END

*D_NET *196 0.00799289
*CONN
*I *4568:D I *D sky130_fd_sc_hd__or4_1
*I *4537:B I *D sky130_fd_sc_hd__nor2_1
*I *4502:Y O *D sky130_fd_sc_hd__a31oi_1
*CAP
1 *4568:D 6.29709e-05
2 *4537:B 0.00135094
3 *4502:Y 0.000690526
4 *196:10 0.00210444
5 *4537:B *4514:A 3.18676e-05
6 *4537:B *4514:B 0.000129234
7 *4537:B *4521:B1 1.15172e-05
8 *4537:B *4524:A1 2.28598e-05
9 *4537:B *245:27 0.000177351
10 *4568:D *245:21 5.52302e-05
11 *196:10 *4466:B 0
12 *196:10 *231:20 0.000446603
13 *4521:A3 *4537:B 9.71197e-05
14 *4522:B1 *4537:B 1.72894e-05
15 *4525:D *4537:B 1.21258e-05
16 *4551:B *4537:B 9.60939e-05
17 *4568:B *4537:B 5.33005e-05
18 *4568:C *4537:B 0.00105512
19 *4568:C *4568:D 5.52302e-05
20 *88:12 *4537:B 7.43578e-06
21 *160:10 *196:10 0.000287842
22 *160:12 *4537:B 0.000969408
23 *193:38 *4537:B 0.000258391
*RES
1 *4502:Y *196:10 25.7464 
2 *196:10 *4537:B 45.5857 
3 *196:10 *4568:D 15.0679 
*END

*D_NET *197 0.0174259
*CONN
*I *4550:A2 I *D sky130_fd_sc_hd__a221o_1
*I *4556:A3 I *D sky130_fd_sc_hd__a31o_1
*I *4587:C1 I *D sky130_fd_sc_hd__o2111a_1
*I *4504:B1 I *D sky130_fd_sc_hd__o211ai_1
*I *4564:A3 I *D sky130_fd_sc_hd__a31o_1
*I *4503:X O *D sky130_fd_sc_hd__or2_4
*CAP
1 *4550:A2 0
2 *4556:A3 0
3 *4587:C1 0
4 *4504:B1 0.000177696
5 *4564:A3 0
6 *4503:X 0.000729911
7 *197:68 0.00163548
8 *197:50 0.00230546
9 *197:44 0.00243393
10 *197:19 0.00197875
11 *197:10 0.00076701
12 *4504:B1 *4504:A1 0.000129572
13 *4504:B1 *199:24 0.000117956
14 *4504:B1 *224:18 0
15 *4504:B1 *224:30 2.4652e-05
16 *197:10 *224:18 8.64227e-05
17 *197:10 *224:30 0
18 *197:10 *245:69 0
19 *197:10 *245:80 0
20 *197:19 *4504:A1 2.30116e-06
21 *197:19 *224:18 0
22 *197:19 *245:80 8.10363e-06
23 *197:44 *221:12 9.94194e-06
24 *197:50 *221:12 0.000197893
25 *197:68 *4533:C1 7.77652e-05
26 *197:68 *4587:A1 5.52302e-05
27 *197:68 *4587:A2 2.28598e-05
28 *197:68 *4587:B1 0.000178847
29 *197:68 *227:70 6.29722e-05
30 *197:68 *235:25 0.000412326
31 *197:68 *243:16 0.000374587
32 *197:68 *243:22 2.81891e-05
33 *4490:A2 *197:68 0.000306324
34 *4492:B1 *197:68 3.0285e-05
35 *4500:C1 *197:10 0.000104777
36 *4511:A *197:50 0.00018313
37 *4550:A1 *197:44 0.000183211
38 *4556:A1 *197:50 2.49484e-05
39 *4556:A2 *197:50 1.02504e-05
40 *4556:A2 *197:68 0.000245356
41 *4560:A3 *197:44 0.000148911
42 *4562:B *197:44 0.000129601
43 *4564:A2 *197:10 0
44 *4566:C1 *197:10 7.8327e-05
45 *4570:A1 *197:10 1.14671e-05
46 *4570:A3 *197:10 0.000288564
47 *4570:B1 *197:10 2.32591e-05
48 *4587:D1 *197:68 9.41642e-05
49 *4637:A *197:68 6.8646e-06
50 *84:10 *197:68 7.48301e-06
51 *87:43 *197:68 0.00060785
52 *95:14 *197:44 0.000131918
53 *149:22 *197:10 1.91418e-05
54 *149:32 *197:10 5.5782e-05
55 *157:80 *197:10 0.000946761
56 *163:69 *197:68 1.24368e-05
57 *163:92 *197:68 0.000481575
58 *165:8 *197:50 0.000138955
59 *165:8 *197:68 0.000165134
60 *167:10 *197:10 4.17721e-05
61 *170:75 *197:44 1.18927e-05
62 *183:36 *197:68 4.84078e-05
63 *189:28 *197:50 0.000882808
64 *190:22 *4504:B1 0.000186669
*RES
1 *4503:X *197:10 32.9786 
2 *197:10 *4564:A3 13.8 
3 *197:10 *197:19 0.580357 
4 *197:19 *4504:B1 18.2018 
5 *197:19 *197:44 17.4863 
6 *197:44 *197:50 21.6161 
7 *197:50 *197:68 48.875 
8 *197:68 *4587:C1 9.3 
9 *197:50 *4556:A3 13.8 
10 *197:44 *4550:A2 9.3 
*END

*D_NET *198 0.000916742
*CONN
*I *4507:A2 I *D sky130_fd_sc_hd__a32o_1
*I *4504:Y O *D sky130_fd_sc_hd__o211ai_1
*CAP
1 *4507:A2 0.000196787
2 *4504:Y 0.000196787
3 *4507:A2 *4513:A1 0.000144773
4 *4507:A2 *199:24 0.000338988
5 *190:22 *4507:A2 3.94081e-05
*RES
1 *4504:Y *4507:A2 23.8143 
*END

*D_NET *199 0.00801587
*CONN
*I *4507:A3 I *D sky130_fd_sc_hd__a32o_1
*I *4572:A1 I *D sky130_fd_sc_hd__a32o_1
*I *4560:A1 I *D sky130_fd_sc_hd__a32o_1
*I *4528:C1 I *D sky130_fd_sc_hd__o211ai_1
*I *4505:Y O *D sky130_fd_sc_hd__nor2_2
*CAP
1 *4507:A3 0
2 *4572:A1 0
3 *4560:A1 0.000265137
4 *4528:C1 0.000454035
5 *4505:Y 0.000448773
6 *199:28 0.00126627
7 *199:24 0.000911453
8 *199:14 0.00081313
9 *199:24 *4504:A1 0.000142856
10 *199:28 *224:30 0.00105673
11 *4504:B1 *199:24 0.000117956
12 *4507:A1 *199:14 1.76039e-05
13 *4507:A2 *199:24 0.000338988
14 *4507:B1 *199:14 1.2747e-05
15 *4513:B2 *199:14 0
16 *4516:B *4528:C1 0.00010096
17 *4517:A2 *4528:C1 8.68665e-05
18 *4528:B1 *4528:C1 5.71472e-05
19 *4529:A1 *4528:C1 0.000129263
20 *4529:A1 *4560:A1 6.1684e-05
21 *4529:B1 *4528:C1 3.4323e-05
22 *4553:A2 *4528:C1 0.000125724
23 *4560:B1 *4560:A1 6.67723e-05
24 *4560:B2 *4560:A1 0.000122091
25 *4560:B2 *199:28 5.52302e-05
26 *4562:B *4528:C1 9.22701e-05
27 *4572:B1 *199:28 2.39852e-05
28 *4574:A2 *199:24 0.000188586
29 *4574:A2 *199:28 0.000144773
30 *71:29 *4528:C1 0.000401887
31 *161:97 *4528:C1 1.74352e-05
32 *166:61 *4528:C1 0
33 *166:61 *4560:A1 0
34 *190:18 *199:14 0.000107683
35 *190:22 *199:14 3.74604e-06
36 *190:22 *199:24 0.000309877
37 *190:22 *199:28 3.98905e-05
*RES
1 *4505:Y *199:14 20.1393 
2 *199:14 *199:24 14.75 
3 *199:24 *199:28 16.5357 
4 *199:28 *4528:C1 25.3179 
5 *199:28 *4560:A1 18.8536 
6 *199:24 *4572:A1 9.3 
7 *199:14 *4507:A3 13.8 
*END

*D_NET *200 0.00359434
*CONN
*I *4578:A1 I *D sky130_fd_sc_hd__o21a_1
*I *4546:B2 I *D sky130_fd_sc_hd__o22a_1
*I *4590:A1 I *D sky130_fd_sc_hd__o32a_1
*I *4506:Y O *D sky130_fd_sc_hd__nand2_1
*CAP
1 *4578:A1 6.64739e-05
2 *4546:B2 2.06112e-05
3 *4590:A1 0.000259855
4 *4506:Y 0.000767204
5 *200:30 0.000594434
6 *4578:A1 *221:12 0.000169366
7 *200:30 *221:12 0.00135908
8 *4590:B2 *4590:A1 5.52302e-05
9 *4591:A *4590:A1 6.74815e-05
10 *4591:A *200:30 9.68957e-05
11 *4591:C *200:30 6.12668e-05
12 *4592:S *4590:A1 0
13 *189:28 *4546:B2 3.99614e-06
14 *189:28 *4578:A1 2.89114e-05
15 *189:45 *4590:A1 4.3537e-05
*RES
1 *4506:Y *4590:A1 31.4214 
2 *4506:Y *200:30 32.8 
3 *200:30 *4546:B2 9.72857 
4 *200:30 *4578:A1 11.0679 
*END

*D_NET *201 0.00107017
*CONN
*I *4513:A1 I *D sky130_fd_sc_hd__a22o_1
*I *4507:X O *D sky130_fd_sc_hd__a32o_1
*CAP
1 *4513:A1 0.000374513
2 *4507:X 0.000374513
3 *4507:A2 *4513:A1 0.000144773
4 *4513:B2 *4513:A1 0.000176374
*RES
1 *4507:X *4513:A1 35.1536 
*END

*D_NET *202 0.00115965
*CONN
*I *4509:B1 I *D sky130_fd_sc_hd__o21ai_4
*I *4508:X O *D sky130_fd_sc_hd__or2_4
*CAP
1 *4509:B1 0.000579825
2 *4508:X 0.000579825
3 *4509:A1 *4509:B1 0
*RES
1 *4508:X *4509:B1 36.5643 
*END

*D_NET *203 0.00441735
*CONN
*I *4456:A0 I *D sky130_fd_sc_hd__mux2_8
*I *4595:C I *D sky130_fd_sc_hd__and3_4
*I *4644:A I *D sky130_fd_sc_hd__dlygate4sd3_1
*I *4596:A2 I *D sky130_fd_sc_hd__a21oi_1
*I *4616:Q O *D sky130_fd_sc_hd__dfrtp_4
*CAP
1 *4456:A0 0.00100291
2 *4595:C 0.000251028
3 *4644:A 0.000128666
4 *4596:A2 0.000219576
5 *4616:Q 3.3433e-05
6 *203:25 0.000581594
7 *203:17 0.00120481
8 *203:6 0.000253009
9 *4456:A0 *4456:A1 0.000400965
10 *4456:A0 *4625:A 0.000228558
11 *4456:A0 *225:8 5.41794e-05
12 *4456:A0 *232:10 0
13 *4595:C *205:12 2.97137e-05
14 *4596:A2 *4596:A1 2.89114e-05
15 *203:25 *4596:A1 0
16 *203:25 *232:10 0
*RES
1 *4616:Q *203:6 9.83571 
2 *203:6 *4596:A2 13.1393 
3 *203:6 *203:17 4.5 
4 *203:17 *203:25 7.71429 
5 *203:25 *4644:A 11.4786 
6 *203:25 *4595:C 13.5679 
7 *203:17 *4456:A0 28.175 
*END

*D_NET *204 0.00839977
*CONN
*I *4459:A I *D sky130_fd_sc_hd__nor2_1
*I *4461:A0 I *D sky130_fd_sc_hd__mux2_1
*I *4458:B I *D sky130_fd_sc_hd__nand2b_1
*I *4596:A1 I *D sky130_fd_sc_hd__a21oi_1
*I *4595:A I *D sky130_fd_sc_hd__and3_4
*I *4646:A I *D sky130_fd_sc_hd__dlygate4sd3_1
*I *4617:Q O *D sky130_fd_sc_hd__dfrtp_4
*CAP
1 *4459:A 9.42126e-05
2 *4461:A0 0
3 *4458:B 0.000162315
4 *4596:A1 0.000167806
5 *4595:A 0
6 *4646:A 0.00171399
7 *4617:Q 0.000140169
8 *204:60 0.00108636
9 *204:56 0.00264607
10 *204:23 0.000661695
11 *204:10 0.000720227
12 *4458:B *4461:A1 4.35048e-05
13 *4459:A *232:20 3.17148e-05
14 *4596:A1 *4462:A0 1.02504e-05
15 *204:23 *4462:A0 0.000222885
16 *204:56 *4594:A 0.000323419
17 *204:56 *4609:A 1.40749e-05
18 *4596:A2 *4596:A1 2.89114e-05
19 *4597:B *4596:A1 0
20 *4617:D *204:56 0.000227532
21 *4617:RESET_B *204:56 3.33238e-05
22 *4634:A *4458:B 6.74911e-05
23 *152:10 *4458:B 3.82227e-06
24 *203:25 *4596:A1 0
*RES
1 *4617:Q *204:10 20.8536 
2 *204:10 *4646:A 10.6571 
3 *204:10 *204:23 13.7143 
4 *204:23 *4595:A 13.8 
5 *204:23 *4596:A1 16.3893 
6 *4646:A *204:56 42.5143 
7 *204:56 *204:60 15.3036 
8 *204:60 *4458:B 21.0187 
9 *204:60 *4461:A0 9.3 
10 *204:56 *4459:A 15.4429 
*END

*D_NET *205 0.00846647
*CONN
*I *4647:A I *D sky130_fd_sc_hd__dlygate4sd3_1
*I *4595:B I *D sky130_fd_sc_hd__and3_4
*I *4462:A0 I *D sky130_fd_sc_hd__mux2_1
*I *4618:Q O *D sky130_fd_sc_hd__dfrtp_4
*CAP
1 *4647:A 0.000127928
2 *4595:B 0
3 *4462:A0 0.000635962
4 *4618:Q 0.000206713
5 *205:12 0.00154444
6 *205:8 0.00124312
7 *4462:A0 *4462:A1 0.00171128
8 *4462:A0 *248:14 0.00104267
9 *4462:A0 *248:16 0.0013942
10 *4462:A0 *248:18 0.000144773
11 *205:12 *4618:CLK 2.89114e-05
12 *4595:C *205:12 2.97137e-05
13 *4596:A1 *4462:A0 1.02504e-05
14 *4597:B *4462:A0 7.95674e-05
15 *4618:RESET_B *4647:A 3.69697e-05
16 *139:8 *205:12 7.07155e-06
17 *204:23 *4462:A0 0.000222885
*RES
1 *4618:Q *205:8 11.9071 
2 *205:8 *205:12 10.7143 
3 *205:12 *4462:A0 45.5143 
4 *205:12 *4595:B 9.3 
5 *205:8 *4647:A 20.4786 
*END

*D_NET *206 0.004304
*CONN
*I *4598:A I *D sky130_fd_sc_hd__and2_4
*I *4453:B I *D sky130_fd_sc_hd__or2_4
*I *4455:A0 I *D sky130_fd_sc_hd__mux2_8
*I *4599:A I *D sky130_fd_sc_hd__nor2_1
*I *4619:Q O *D sky130_fd_sc_hd__dfrtp_4
*CAP
1 *4598:A 0
2 *4453:B 0
3 *4455:A0 0.00040385
4 *4599:A 0
5 *4619:Q 0.000504874
6 *206:27 0.00121185
7 *206:23 0.000880442
8 *206:14 0.000577321
9 *4455:A0 *4455:S 0.000177948
10 *4455:A0 *239:10 0
11 *4455:A0 *247:10 9.25014e-06
12 *206:14 *4611:A 0.000183993
13 *206:23 *4611:A 0.000178593
14 *4599:B *206:14 1.97695e-05
15 *4599:B *206:23 4.27437e-05
16 *4599:B *206:27 2.59355e-05
17 *4616:RESET_B *4455:A0 5.41054e-05
18 *4619:RESET_B *206:14 3.33238e-05
*RES
1 *4619:Q *206:14 27.0679 
2 *206:14 *4599:A 9.3 
3 *206:14 *206:23 2.19643 
4 *206:23 *206:27 12.875 
5 *206:27 *4455:A0 24.3536 
6 *206:27 *4453:B 9.3 
7 *206:23 *4598:A 9.3 
*END

*D_NET *207 0.00440634
*CONN
*I *4645:A I *D sky130_fd_sc_hd__dlygate4sd3_1
*I *4602:A I *D sky130_fd_sc_hd__and3_4
*I *4603:A1 I *D sky130_fd_sc_hd__a21oi_1
*I *4478:B I *D sky130_fd_sc_hd__or2_4
*I *4620:Q O *D sky130_fd_sc_hd__dfrtp_4
*CAP
1 *4645:A 0
2 *4602:A 9.48901e-05
3 *4603:A1 1.99857e-05
4 *4478:B 0.000511008
5 *4620:Q 0.000337515
6 *207:24 0.000875875
7 *207:14 0.000762121
8 *207:12 0.000659864
9 *4602:A *4603:B1 3.6322e-05
10 *4602:A *213:12 6.09572e-05
11 *207:14 *4601:A 0.000235232
12 *207:14 *4603:B1 6.86792e-05
13 *207:14 *213:6 1.74352e-05
14 *207:24 *4601:A 0.000227539
15 *207:24 *4603:B1 7.65719e-05
16 *4603:A2 *4478:B 2.27416e-05
17 *4603:A2 *4603:A1 1.04232e-05
18 *4603:A2 *207:24 8.07397e-06
19 *4604:B *4603:A1 0
20 *4604:B *207:24 0.000264784
21 *4624:A *4602:A 9.03127e-05
22 *141:23 *4602:A 2.60064e-05
*RES
1 *4620:Q *207:12 23.9607 
2 *207:12 *207:14 7.10714 
3 *207:14 *207:24 7.17857 
4 *207:24 *4478:B 17.6571 
5 *207:24 *4603:A1 9.72857 
6 *207:14 *4602:A 20.8536 
7 *207:12 *4645:A 9.3 
*END

*D_NET *208 0.00397413
*CONN
*I *4648:A I *D sky130_fd_sc_hd__dlygate4sd3_1
*I *4602:B I *D sky130_fd_sc_hd__and3_4
*I *4483:A0 I *D sky130_fd_sc_hd__mux2_8
*I *4621:Q O *D sky130_fd_sc_hd__dfrtp_4
*CAP
1 *4648:A 9.37956e-05
2 *4602:B 0
3 *4483:A0 0.000959788
4 *4621:Q 0.000311955
5 *208:18 0.00149113
6 *208:12 0.000937093
7 *4483:A0 *4483:S 0.000180371
8 *4648:A *4603:B1 0
9 *208:18 *4603:B1 0
*RES
1 *4621:Q *208:12 18.175 
2 *208:12 *208:18 12.9107 
3 *208:18 *4483:A0 20.9429 
4 *208:18 *4602:B 9.3 
5 *208:12 *4648:A 15.4429 
*END

*D_NET *209 0.00764753
*CONN
*I *4606:A I *D sky130_fd_sc_hd__or2_1
*I *4605:A I *D sky130_fd_sc_hd__nand2_1
*I *4495:A2 I *D sky130_fd_sc_hd__o21a_4
*I *4496:A2 I *D sky130_fd_sc_hd__o21ai_2
*I *4622:Q O *D sky130_fd_sc_hd__dfrtp_4
*CAP
1 *4606:A 0
2 *4605:A 3.12428e-05
3 *4495:A2 8.00408e-05
4 *4496:A2 0.000171707
5 *4622:Q 0.00076666
6 *209:18 0.00180003
7 *209:16 0.001892
8 *209:12 0.00107913
9 *4495:A2 *4495:A1 6.74815e-05
10 *4496:A2 *4496:A1 5.33334e-05
11 *209:12 *4614:A 0.000159524
12 *209:12 *4623:CLK 2.14658e-05
13 *209:16 *4623:CLK 3.48705e-05
14 *209:18 *4496:A1 5.03772e-05
15 *209:18 *4623:CLK 0.000151628
16 *209:18 *247:90 0.000445436
17 *209:18 *247:92 0.000323952
18 *4496:B1 *4495:A2 0
19 *4605:B *4605:A 1.97695e-05
20 *4605:B *209:16 0.000224583
21 *4606:B *209:12 0.00010096
22 *4606:B *209:16 0.000114026
23 *4622:D *209:12 3.4954e-05
24 *4622:RESET_B *209:12 1.06618e-05
25 *190:14 *4496:A2 1.3701e-05
*RES
1 *4622:Q *209:12 31.55 
2 *209:12 *209:16 4.66071 
3 *209:16 *209:18 20.6607 
4 *209:18 *4496:A2 11.8 
5 *209:18 *4495:A2 19.9429 
6 *209:16 *4605:A 10.0321 
7 *209:12 *4606:A 9.3 
*END

*D_NET *210 0.0012181
*CONN
*I *4643:A I *D sky130_fd_sc_hd__dlygate4sd3_1
*I *4508:B I *D sky130_fd_sc_hd__or2_4
*I *4623:Q O *D sky130_fd_sc_hd__dfrtp_1
*CAP
1 *4643:A 0.000198752
2 *4508:B 7.18114e-05
3 *4623:Q 0.000270564
4 *4508:B *247:90 0.000224322
5 *4643:A *4483:A1 6.19181e-05
6 *4643:A *247:90 4.10886e-05
7 *4608:B *4643:A 0.000122101
8 *4623:D *4643:A 0.000227539
*RES
1 *4623:Q *4508:B 20.7964 
2 *4623:Q *4643:A 32.3679 
*END

*D_NET *211 0.00418509
*CONN
*I *4626:A I *D sky130_fd_sc_hd__clkbuf_16
*I *4625:A I *D sky130_fd_sc_hd__clkbuf_16
*I *4624:X O *D sky130_fd_sc_hd__clkbuf_16
*CAP
1 *4626:A 0.000174297
2 *4625:A 0.000532067
3 *4624:X 0.000128177
4 *211:8 0.000834542
5 *4625:A *4456:A1 0.000269422
6 *4625:A *4456:S 2.44318e-05
7 *4625:A *4619:CLK 0
8 *4625:A *4641:A 5.80217e-05
9 *4625:A *212:8 0
10 *4625:A *214:24 0
11 *4625:A *225:8 0.000995952
12 *4626:A *4603:B1 1.33251e-05
13 *4626:A *214:20 0.000392276
14 *4626:A *225:8 0.000527537
15 *4456:A0 *4625:A 0.000228558
16 *4604:B *4626:A 6.48387e-06
17 *141:8 *4625:A 0
18 *141:19 *4625:A 0
19 *141:19 *4626:A 0
*RES
1 *4624:X *211:8 15.1571 
2 *211:8 *4625:A 29.3714 
3 *211:8 *4626:A 20.7375 
*END

*D_NET *212 0.00528941
*CONN
*I *4618:CLK I *D sky130_fd_sc_hd__dfrtp_4
*I *4619:CLK I *D sky130_fd_sc_hd__dfrtp_4
*I *4627:A I *D sky130_fd_sc_hd__clkbuf_4
*I *4616:CLK I *D sky130_fd_sc_hd__dfrtp_4
*I *4617:CLK I *D sky130_fd_sc_hd__dfrtp_4
*I *4625:X O *D sky130_fd_sc_hd__clkbuf_16
*CAP
1 *4618:CLK 0.000211981
2 *4619:CLK 0.00018497
3 *4627:A 2.23854e-05
4 *4616:CLK 6.17105e-05
5 *4617:CLK 0.000553592
6 *4625:X 0.000275423
7 *212:18 0.00148222
8 *212:12 0.00123559
9 *212:8 0.000594696
10 *4617:CLK *4594:B 0
11 *4617:CLK *4609:A 0
12 *4619:CLK *4456:S 1.76135e-05
13 *4619:CLK *4641:A 0
14 *4619:CLK *214:24 0.000100726
15 *212:8 *4456:S 5.33882e-05
16 *212:12 *4641:A 5.37963e-05
17 *4616:D *4617:CLK 0
18 *4616:RESET_B *4617:CLK 0
19 *4616:RESET_B *212:18 0
20 *4617:D *4617:CLK 4.57352e-05
21 *4625:A *4619:CLK 0
22 *4625:A *212:8 0
23 *139:25 *4618:CLK 0.000366675
24 *205:12 *4618:CLK 2.89114e-05
*RES
1 *4625:X *212:8 15.1393 
2 *212:8 *212:12 9.96429 
3 *212:12 *212:18 17.9286 
4 *212:18 *4617:CLK 23.3357 
5 *212:18 *4616:CLK 14.7464 
6 *212:12 *4627:A 9.72857 
7 *212:8 *4619:CLK 17.6036 
8 *4625:X *4618:CLK 32.8143 
*END

*D_NET *213 0.00470761
*CONN
*I *4620:CLK I *D sky130_fd_sc_hd__dfrtp_4
*I *4622:CLK I *D sky130_fd_sc_hd__dfrtp_4
*I *4623:CLK I *D sky130_fd_sc_hd__dfrtp_1
*I *4621:CLK I *D sky130_fd_sc_hd__dfrtp_4
*I *4626:X O *D sky130_fd_sc_hd__clkbuf_16
*CAP
1 *4620:CLK 0.000154649
2 *4622:CLK 0.00010582
3 *4623:CLK 0.000359154
4 *4621:CLK 7.2478e-05
5 *4626:X 7.10748e-05
6 *213:25 0.000874396
7 *213:12 0.000825845
8 *213:6 0.000569669
9 *4620:CLK *4603:B1 3.17148e-05
10 *4622:CLK *214:10 0
11 *213:6 *4603:B1 4.08637e-05
12 *213:12 *4603:B1 0.000180764
13 *213:25 *4614:A 0
14 *4602:A *213:12 6.09572e-05
15 *4602:C *213:12 0.000125724
16 *4604:B *213:12 8.08376e-05
17 *4605:B *4623:CLK 6.71657e-05
18 *4606:B *4623:CLK 0.000161769
19 *4607:B *4623:CLK 0.000142856
20 *4620:D *4620:CLK 5.52302e-05
21 *4621:D *4621:CLK 5.33334e-05
22 *4621:RESET_B *213:25 0
23 *4622:D *4622:CLK 4.57445e-05
24 *4622:D *4623:CLK 0.000151061
25 *4624:A *4620:CLK 0.000241852
26 *141:23 *213:12 9.25014e-06
27 *143:21 *213:12 0
28 *143:21 *213:25 0
29 *207:14 *213:6 1.74352e-05
30 *209:12 *4623:CLK 2.14658e-05
31 *209:16 *4623:CLK 3.48705e-05
32 *209:18 *4623:CLK 0.000151628
*RES
1 *4626:X *213:6 10.2464 
2 *213:6 *213:12 10.9464 
3 *213:12 *4621:CLK 15.175 
4 *213:12 *213:25 7.10714 
5 *213:25 *4623:CLK 22.9607 
6 *213:25 *4622:CLK 16.05 
7 *213:6 *4620:CLK 21.9964 
*END

*D_NET *214 0.00993051
*CONN
*I *4483:S I *D sky130_fd_sc_hd__mux2_8
*I *4612:A I *D sky130_fd_sc_hd__inv_1
*I *4642:A I *D sky130_fd_sc_hd__buf_1
*I *4456:S I *D sky130_fd_sc_hd__mux2_8
*I *4649:X O *D sky130_fd_sc_hd__buf_1
*CAP
1 *4483:S 0.000219073
2 *4612:A 0.000147762
3 *4642:A 2.91823e-05
4 *4456:S 0.000662733
5 *4649:X 0.000648807
6 *214:24 0.00108154
7 *214:20 0.00111634
8 *214:10 0.00144684
9 *4456:S *4456:A1 0.000872628
10 *4456:S *248:8 0.000153054
11 *4642:A *4641:A 1.92789e-05
12 *214:10 *225:8 0.0010807
13 *214:20 *4601:A 0
14 *214:20 *225:8 0.00016126
15 *214:24 *4641:A 0
16 *4483:A0 *4483:S 0.000180371
17 *4600:B *214:24 0
18 *4604:B *214:20 0
19 *4619:CLK *4456:S 1.76135e-05
20 *4619:CLK *214:24 0.000100726
21 *4619:D *214:24 7.48356e-05
22 *4622:CLK *214:10 0
23 *4624:A *214:24 0.000123903
24 *4625:A *4456:S 2.44318e-05
25 *4625:A *214:24 0
26 *4626:A *214:20 0.000392276
27 *139:25 *4456:S 2.58997e-05
28 *139:25 *214:24 0.000353268
29 *141:8 *214:24 0.000153047
30 *141:19 *214:20 0
31 *141:19 *214:24 0.000395427
32 *143:8 *214:10 0.000109809
33 *143:8 *214:20 4.46186e-06
34 *143:21 *214:10 0.00028185
35 *212:8 *4456:S 5.33882e-05
*RES
1 *4649:X *214:10 30.5857 
2 *214:10 *214:20 15.9821 
3 *214:20 *214:24 17.0714 
4 *214:24 *4456:S 19.4375 
5 *214:24 *4642:A 14.3357 
6 *214:20 *4612:A 11.6348 
7 *214:10 *4483:S 9.08036 
*END

*D_NET *215 0.000638863
*CONN
*I *4663:A I *D sky130_fd_sc_hd__clkbuf_1
*I *4513:X O *D sky130_fd_sc_hd__a22o_1
*CAP
1 *4663:A 0.000276471
2 *4513:X 0.000276471
3 *62:14 *4663:A 8.59213e-05
*RES
1 *4513:X *4663:A 32.6179 
*END

*D_NET *216 0.0021931
*CONN
*I *4664:A I *D sky130_fd_sc_hd__clkbuf_1
*I *4530:X O *D sky130_fd_sc_hd__a32o_1
*CAP
1 *4664:A 0.00098946
2 *4530:X 0.00098946
3 *4664:A *4667:A 0.000104258
4 *4664:A *4669:A 0
5 *65:25 *4664:A 0
6 *65:36 *4664:A 0.000109918
*RES
1 *4530:X *4664:A 43.1357 
*END

*D_NET *217 0.0116581
*CONN
*I *4665:A I *D sky130_fd_sc_hd__clkbuf_1
*I *4548:X O *D sky130_fd_sc_hd__mux2_1
*CAP
1 *4665:A 0.00040083
2 *4548:X 6.18019e-05
3 *217:12 0.00207705
4 *217:10 0.00173802
5 *4665:A *4666:A 0
6 *217:12 *4573:A 0.000579959
7 *4513:B2 *4665:A 0
8 *4547:A1 *217:12 9.31893e-05
9 *4548:A1 *217:12 0.000835027
10 *4548:S *217:10 0.000100831
11 *4549:A *217:12 0.000621848
12 *4555:B *217:12 0.000216862
13 *4574:A2 *4665:A 0
14 *4574:B1 *4665:A 0
15 *4574:B1 *217:12 0.000229456
16 *4591:B *217:12 0.000706537
17 *4592:A0 *217:10 0
18 *64:14 *217:12 0.000843855
19 *162:105 *217:12 4.59075e-05
20 *165:14 *217:12 0.00269939
21 *189:8 *217:12 0.000276815
22 *189:12 *217:12 0.000130733
*RES
1 *4548:X *217:10 19.6393 
2 *217:10 *217:12 53.5179 
3 *217:12 *4665:A 25.1036 
*END

*D_NET *218 0.00421433
*CONN
*I *4666:A I *D sky130_fd_sc_hd__clkbuf_1
*I *4561:X O *D sky130_fd_sc_hd__a22o_1
*CAP
1 *4666:A 0.00149102
2 *4561:X 0.00149102
3 *4666:A *4667:A 0
4 *4665:A *4666:A 0
5 *65:25 *4666:A 0.00123228
*RES
1 *4561:X *4666:A 47.85 
*END

*D_NET *219 0.000490908
*CONN
*I *4667:A I *D sky130_fd_sc_hd__clkbuf_1
*I *4574:X O *D sky130_fd_sc_hd__a22o_1
*CAP
1 *4667:A 0.000193325
2 *4574:X 0.000193325
3 *4664:A *4667:A 0.000104258
4 *4666:A *4667:A 0
*RES
1 *4574:X *4667:A 31.6714 
*END

*D_NET *220 0.00692696
*CONN
*I *4668:A I *D sky130_fd_sc_hd__clkbuf_1
*I *4580:X O *D sky130_fd_sc_hd__mux2_1
*CAP
1 *4668:A 0.00322145
2 *4580:X 6.81135e-05
3 *220:10 0.00328956
4 *4668:A *4670:A 0.000248798
5 *65:12 *4668:A 9.90431e-05
*RES
1 *4580:X *220:10 19.3357 
2 *220:10 *4668:A 47.9429 
*END

*D_NET *221 0.0135962
*CONN
*I *4669:A I *D sky130_fd_sc_hd__clkbuf_1
*I *4592:X O *D sky130_fd_sc_hd__mux2_1
*CAP
1 *4669:A 0.00075332
2 *4592:X 9.64406e-05
3 *221:12 0.00310983
4 *221:10 0.00245295
5 *221:12 *4550:B2 0.000741781
6 *4473:A3 *4669:A 0
7 *4530:A2 *4669:A 0
8 *4530:B1 *4669:A 0
9 *4578:A1 *221:12 0.000169366
10 *4578:A2 *221:12 0.000268396
11 *4591:A *221:10 4.58192e-05
12 *4591:A *221:12 4.70078e-05
13 *4591:B *221:12 0.00139922
14 *4592:A1 *221:10 2.79092e-05
15 *4592:S *221:10 0
16 *4664:A *4669:A 0
17 *63:10 *221:12 0.000137983
18 *65:25 *4669:A 0.000250193
19 *108:12 *221:12 0.0011836
20 *189:28 *221:12 0.00134546
21 *197:44 *221:12 9.94194e-06
22 *197:50 *221:12 0.000197893
23 *200:30 *221:12 0.00135908
*RES
1 *4592:X *221:10 20.55 
2 *221:10 *221:12 56.8036 
3 *221:12 *4669:A 30.8714 
*END

*D_NET *222 0.00194826
*CONN
*I *4670:A I *D sky130_fd_sc_hd__clkbuf_1
*I *4593:X O *D sky130_fd_sc_hd__and3_1
*CAP
1 *4670:A 0.000742024
2 *4593:X 0.000742024
3 *4554:B1 *4670:A 7.77652e-05
4 *4668:A *4670:A 0.000248798
5 *62:26 *4670:A 0.000137647
*RES
1 *4593:X *4670:A 40.5464 
*END

*D_NET *223 0.0170009
*CONN
*I *4553:C1 I *D sky130_fd_sc_hd__a211o_1
*I *4528:A1 I *D sky130_fd_sc_hd__o211ai_1
*I *4522:A1 I *D sky130_fd_sc_hd__a32o_1
*I *4542:B1 I *D sky130_fd_sc_hd__a31o_1
*I *4489:A I *D sky130_fd_sc_hd__nand2_2
*I *4589:C1 I *D sky130_fd_sc_hd__o221a_1
*I *4585:A0 I *D sky130_fd_sc_hd__mux2_1
*I *4584:B I *D sky130_fd_sc_hd__nor2_1
*I *4520:A I *D sky130_fd_sc_hd__nand2_1
*I *4687:X O *D sky130_fd_sc_hd__buf_2
*CAP
1 *4553:C1 0.00016957
2 *4528:A1 8.0928e-05
3 *4522:A1 0.000317744
4 *4542:B1 0.000192264
5 *4489:A 0
6 *4589:C1 0.000126344
7 *4585:A0 0
8 *4584:B 0.000153118
9 *4520:A 2.40609e-05
10 *4687:X 0.000219011
11 *223:75 0.000193933
12 *223:51 0.000634136
13 *223:45 0.0012265
14 *223:34 0.00168702
15 *223:22 0.00138282
16 *223:20 0.000585619
17 *223:18 0.000308919
18 *223:14 0.00055419
19 *4542:B1 *4543:B1 0.000183875
20 *4542:B1 *244:43 0.000171368
21 *4553:C1 *224:40 1.39841e-05
22 *4584:B *4467:B 4.87854e-05
23 *4584:B *228:46 6.16721e-05
24 *4589:C1 *243:68 4.4873e-05
25 *223:14 *4687:A 3.37729e-05
26 *223:34 *4535:A1 2.26424e-05
27 *223:34 *235:25 0.000166503
28 *223:45 *4532:A1 9.7659e-05
29 *223:45 *243:68 0.000225609
30 *4506:A *4589:C1 7.12029e-06
31 *4506:A *223:75 2.36422e-05
32 *4516:B *4528:A1 7.77751e-05
33 *4520:B *223:34 5.52238e-05
34 *4523:B1 *4522:A1 0.000272541
35 *4528:A2 *4528:A1 1.02936e-05
36 *4529:A1 *223:14 9.60875e-05
37 *4532:A2 *223:45 3.97677e-05
38 *4535:B1 *223:34 9.60939e-05
39 *4539:A1 *223:34 2.44318e-05
40 *4539:A1 *223:45 0.000229456
41 *4542:A2 *223:14 0.000139913
42 *4542:A3 *4542:B1 3.93986e-05
43 *4550:A1 *4553:C1 1.17968e-05
44 *4553:A2 *4553:C1 9.6087e-05
45 *4553:B1 *4528:A1 0.000167436
46 *4553:B1 *223:20 0.000343598
47 *4553:B1 *223:22 0.000318896
48 *4571:A2 *223:14 0.000208418
49 *4577:A3 *223:34 0.000123295
50 *4585:A1 *4584:B 0.000200533
51 *4586:A1 *223:75 0.000146071
52 *4589:B1 *4589:C1 0.000184151
53 *4589:B1 *223:75 0.000137678
54 *67:41 *223:14 0.000500104
55 *71:8 *4522:A1 5.80706e-06
56 *71:25 *4522:A1 2.56276e-05
57 *83:10 *223:45 5.52238e-05
58 *87:43 *4542:B1 0
59 *95:14 *4553:C1 0.000227539
60 *102:10 *4522:A1 0
61 *102:14 *223:22 0.000151619
62 *148:62 *223:14 9.02232e-05
63 *158:106 *223:18 0.000121573
64 *161:14 *4584:B 9.25014e-06
65 *161:18 *4584:B 8.95956e-05
66 *161:18 *223:51 6.58195e-05
67 *161:97 *4528:A1 2.44318e-05
68 *162:18 *4542:B1 0.000173083
69 *163:10 *4584:B 4.51307e-05
70 *163:10 *223:51 6.39262e-05
71 *163:50 *4589:C1 0.000187042
72 *163:69 *223:34 0.000139907
73 *170:75 *4553:C1 0.00011061
74 *170:75 *223:18 0.000179137
75 *177:45 *4528:A1 0.000306317
76 *177:45 *223:20 0.000354111
77 *177:45 *223:22 0.00109303
78 *177:45 *223:34 0.000130079
79 *183:23 *223:22 0.000178865
80 *183:23 *223:34 0.000353086
81 *193:38 *4522:A1 0.000124957
82 *193:47 *4553:C1 0.000100009
83 *193:47 *223:18 0.000118179
*RES
1 *4687:X *223:14 21.3714 
2 *223:14 *223:18 9.17857 
3 *223:18 *223:20 3.41071 
4 *223:20 *223:22 10.3929 
5 *223:22 *223:34 28.7679 
6 *223:34 *4520:A 9.72857 
7 *223:34 *223:45 12.4643 
8 *223:45 *223:51 12.625 
9 *223:51 *4584:B 18.7464 
10 *223:51 *4585:A0 13.8 
11 *223:45 *223:75 6.75 
12 *223:75 *4589:C1 17.3357 
13 *223:75 *4489:A 13.8 
14 *223:22 *4542:B1 22.9786 
15 *223:20 *4522:A1 26.0143 
16 *223:18 *4528:A1 12.7107 
17 *223:14 *4553:C1 19.2643 
*END

*D_NET *224 0.0205242
*CONN
*I *4500:D1 I *D sky130_fd_sc_hd__a2111o_1
*I *4504:C1 I *D sky130_fd_sc_hd__o211ai_1
*I *4550:C1 I *D sky130_fd_sc_hd__a221o_1
*I *4545:A1 I *D sky130_fd_sc_hd__o31a_1
*I *4510:A I *D sky130_fd_sc_hd__nand2_2
*I *4488:A I *D sky130_fd_sc_hd__nor2_1
*I *4587:B1 I *D sky130_fd_sc_hd__o2111a_1
*I *4658:X O *D sky130_fd_sc_hd__buf_2
*CAP
1 *4500:D1 0
2 *4504:C1 4.22055e-05
3 *4550:C1 0
4 *4545:A1 0
5 *4510:A 8.9522e-05
6 *4488:A 3.04135e-05
7 *4587:B1 0.000943594
8 *4658:X 0.000655363
9 *224:46 0.00103134
10 *224:44 0.000601601
11 *224:40 0.00223937
12 *224:30 0.00274682
13 *224:18 0.00178766
14 *224:12 0.00143861
15 *4587:B1 *4532:A1 0
16 *4587:B1 *4557:A2 1.90936e-05
17 *4587:B1 *227:10 2.94103e-05
18 *4587:B1 *227:16 4.43256e-05
19 *4587:B1 *227:66 5.69618e-05
20 *4587:B1 *228:21 0
21 *4587:B1 *243:22 9.25014e-06
22 *224:12 *4544:A1 0
23 *224:18 *4687:A 0.000873967
24 *224:30 *4550:B2 0.00113097
25 *4500:A1 *224:12 2.47093e-05
26 *4500:B1 *224:12 3.92757e-05
27 *4504:B1 *224:18 0
28 *4504:B1 *224:30 2.4652e-05
29 *4507:B2 *224:12 0
30 *4510:B *4510:A 1.31516e-05
31 *4513:B2 *4504:C1 2.84494e-05
32 *4529:A1 *224:40 0.000131409
33 *4545:A3 *224:40 1.32552e-05
34 *4545:B1 *224:40 4.87854e-05
35 *4546:B1 *224:44 0.00037667
36 *4550:A1 *224:40 0
37 *4553:A2 *224:40 0.00022459
38 *4553:B1 *224:40 2.84494e-05
39 *4553:C1 *224:40 1.39841e-05
40 *4558:C *4587:B1 0.000342488
41 *4558:D *4587:B1 5.74562e-05
42 *4560:B2 *224:30 1.74352e-05
43 *4564:A2 *224:18 0.000243627
44 *4577:A3 *4488:A 5.33005e-05
45 *4578:A2 *4510:A 0.00018529
46 *4578:A2 *4587:B1 0.00044416
47 *4578:A2 *224:46 0.000168698
48 *87:18 *4587:B1 0.000398822
49 *88:12 *4587:B1 0.000106217
50 *95:12 *224:12 0
51 *95:14 *224:40 0.000479517
52 *108:12 *4510:A 6.95299e-05
53 *108:12 *4587:B1 0.000186779
54 *108:12 *224:46 6.35892e-05
55 *157:41 *4587:B1 0.000225616
56 *161:59 *4587:B1 4.15592e-05
57 *169:26 *4587:B1 6.50156e-05
58 *174:21 *224:12 0.0006558
59 *182:35 *4587:B1 0.000103253
60 *190:22 *224:30 0.000556211
61 *195:20 *224:18 0
62 *197:10 *224:18 8.64227e-05
63 *197:10 *224:30 0
64 *197:19 *224:18 0
65 *197:68 *4587:B1 0.000178847
66 *199:28 *224:30 0.00105673
*RES
1 *4658:X *224:12 28.05 
2 *224:12 *224:18 17.6696 
3 *224:18 *224:30 25.0804 
4 *224:30 *224:40 33.8571 
5 *224:40 *224:44 14.4821 
6 *224:44 *224:46 2.25 
7 *224:46 *4587:B1 45.3357 
8 *224:46 *4488:A 14.3357 
9 *224:44 *4510:A 16.6571 
10 *224:40 *4545:A1 9.3 
11 *224:30 *4550:C1 9.3 
12 *224:18 *4504:C1 14.6839 
13 *224:12 *4500:D1 9.3 
*END

*D_NET *225 0.00758528
*CONN
*I *4456:A1 I *D sky130_fd_sc_hd__mux2_8
*I *4650:X O *D sky130_fd_sc_hd__buf_1
*CAP
1 *4456:A1 0.000196008
2 *4650:X 0.00135782
3 *225:8 0.00155383
4 *225:8 *232:10 0
5 *4456:A0 *4456:A1 0.000400965
6 *4456:A0 *225:8 5.41794e-05
7 *4456:S *4456:A1 0.000872628
8 *4607:A *225:8 4.91533e-05
9 *4608:B *225:8 6.58195e-05
10 *4625:A *4456:A1 0.000269422
11 *4625:A *225:8 0.000995952
12 *4626:A *225:8 0.000527537
13 *214:10 *225:8 0.0010807
14 *214:20 *225:8 0.00016126
*RES
1 *4650:X *225:8 49.4429 
2 *225:8 *4456:A1 14.0089 
*END

*D_NET *226 0.002223
*CONN
*I *4544:A1 I *D sky130_fd_sc_hd__a21oi_2
*I *4482:A2 I *D sky130_fd_sc_hd__a21oi_1
*I *4688:X O *D sky130_fd_sc_hd__buf_1
*CAP
1 *4544:A1 0.000318563
2 *4482:A2 2.61022e-05
3 *4688:X 0.000202497
4 *226:10 0.000547162
5 *4544:A1 *4481:B1 0.0001882
6 *226:10 *4481:B1 2.37761e-05
7 *226:10 *237:68 0
8 *4482:B1 *4482:A2 0.000186662
9 *4482:B1 *4544:A1 3.17148e-05
10 *4482:B1 *226:10 0.000148189
11 *4493:A1 *4544:A1 0
12 *4493:A1 *226:10 0
13 *4507:B2 *4544:A1 0
14 *95:12 *4544:A1 5.83304e-05
15 *158:73 *4482:A2 0.000186662
16 *170:32 *226:10 0.000305139
17 *224:12 *4544:A1 0
*RES
1 *4688:X *226:10 18.7107 
2 *226:10 *4482:A2 15.5679 
3 *226:10 *4544:A1 20.9071 
*END

*D_NET *227 0.00745569
*CONN
*I *4557:B1 I *D sky130_fd_sc_hd__a21oi_1
*I *4533:A1 I *D sky130_fd_sc_hd__a211o_1
*I *4532:A1 I *D sky130_fd_sc_hd__o21ai_1
*I *4582:A I *D sky130_fd_sc_hd__nand2_1
*I *4467:A I *D sky130_fd_sc_hd__nand2_4
*I *4469:A I *D sky130_fd_sc_hd__or2_4
*I *4536:A1 I *D sky130_fd_sc_hd__a21bo_4
*I *4659:X O *D sky130_fd_sc_hd__buf_2
*CAP
1 *4557:B1 0
2 *4533:A1 0
3 *4532:A1 0.000302726
4 *4582:A 0
5 *4467:A 8.27852e-05
6 *4469:A 5.93341e-05
7 *4536:A1 0.000298728
8 *4659:X 0.000289576
9 *227:70 0.000364916
10 *227:66 0.000134022
11 *227:37 0.000496758
12 *227:18 0.00103863
13 *227:16 0.000558329
14 *227:10 0.000534473
15 *4467:A *228:59 0.00012401
16 *4536:A1 *4536:A2 0
17 *4536:A1 *228:59 0
18 *227:10 *4501:B1 5.33433e-05
19 *227:70 *4533:C1 5.52238e-05
20 *227:70 *243:22 0.00018372
21 *4501:A1 *227:10 0
22 *4532:A2 *227:16 5.33005e-05
23 *4533:B1 *4532:A1 4.6025e-06
24 *4533:B1 *227:10 1.52978e-05
25 *4533:B1 *227:66 5.25e-05
26 *4558:A *4532:A1 8.15095e-05
27 *4558:B *4532:A1 0.000199698
28 *4558:C *4532:A1 0
29 *4558:D *4532:A1 0
30 *4583:C1 *4532:A1 4.52517e-05
31 *4587:B1 *4532:A1 0
32 *4587:B1 *227:10 2.94103e-05
33 *4587:B1 *227:16 4.43256e-05
34 *4587:B1 *227:66 5.69618e-05
35 *4589:B1 *4536:A1 4.80729e-05
36 *87:10 *4536:A1 0.000324167
37 *87:18 *227:16 1.21289e-05
38 *87:18 *227:18 0.000512945
39 *88:12 *227:16 0.000353086
40 *129:10 *227:16 9.60939e-05
41 *157:37 *227:10 0.000143278
42 *157:41 *227:16 0.000397924
43 *161:14 *4467:A 2.84494e-05
44 *161:18 *4467:A 1.31516e-05
45 *163:10 *4467:A 0
46 *169:26 *4532:A1 9.54798e-06
47 *169:35 *4532:A1 0.000196785
48 *197:68 *227:70 6.29722e-05
49 *223:45 *4532:A1 9.7659e-05
*RES
1 *4659:X *227:10 19.425 
2 *227:10 *227:16 10.3929 
3 *227:16 *227:18 9.16071 
4 *227:18 *4536:A1 24.7643 
5 *227:18 *227:37 5.07143 
6 *227:37 *4469:A 10.2643 
7 *227:37 *4467:A 20.2464 
8 *227:16 *4582:A 9.3 
9 *227:10 *227:66 6.14286 
10 *227:66 *227:70 2.19643 
11 *227:70 *4532:A1 25.7107 
12 *227:70 *4533:A1 9.3 
13 *227:66 *4557:B1 9.3 
*END

*D_NET *228 0.00806325
*CONN
*I *4587:A2 I *D sky130_fd_sc_hd__o2111a_1
*I *4469:B I *D sky130_fd_sc_hd__or2_4
*I *4536:A2 I *D sky130_fd_sc_hd__a21bo_4
*I *4467:B I *D sky130_fd_sc_hd__nand2_4
*I *4557:A2 I *D sky130_fd_sc_hd__a21oi_1
*I *4475:B I *D sky130_fd_sc_hd__and2b_4
*I *4660:X O *D sky130_fd_sc_hd__buf_2
*CAP
1 *4587:A2 2.73607e-05
2 *4469:B 0
3 *4536:A2 0.000441273
4 *4467:B 0.000141439
5 *4557:A2 0.000629243
6 *4475:B 0.0001668
7 *4660:X 0.000505664
8 *228:59 0.000532197
9 *228:46 0.00106881
10 *228:40 0.000884606
11 *228:21 0.00104069
12 *228:8 0.00106311
13 *4475:B *4536:B1_N 0
14 *228:8 *4501:B1 0.000102207
15 *228:8 *4536:B1_N 0.000184745
16 *228:8 *241:43 9.93135e-05
17 *4467:A *228:59 0.00012401
18 *4501:A1 *4475:B 0
19 *4532:A2 *228:21 0.000157707
20 *4532:A2 *228:40 3.36969e-05
21 *4536:A1 *4536:A2 0
22 *4536:A1 *228:59 0
23 *4583:B2 *228:40 1.01487e-05
24 *4584:A *228:46 0.000108402
25 *4584:B *4467:B 4.87854e-05
26 *4584:B *228:46 6.16721e-05
27 *4585:A1 *4467:B 7.49387e-06
28 *4587:B1 *4557:A2 1.90936e-05
29 *4587:B1 *228:21 0
30 *4587:D1 *4587:A2 4.08637e-05
31 *4587:D1 *228:46 9.60875e-05
32 *84:10 *4587:A2 5.03772e-05
33 *84:10 *228:46 6.05161e-06
34 *129:10 *228:21 0.000108511
35 *129:10 *228:40 1.90936e-05
36 *161:14 *4467:B 0.000188361
37 *161:14 *228:46 4.08637e-05
38 *161:18 *228:59 3.17148e-05
39 *169:26 *228:21 0
40 *197:68 *4587:A2 2.28598e-05
*RES
1 *4660:X *228:8 22.55 
2 *228:8 *4475:B 16.5857 
3 *228:8 *228:21 7.5625 
4 *228:21 *4557:A2 21.9527 
5 *228:21 *228:40 5.08036 
6 *228:40 *228:46 14.9464 
7 *228:46 *4467:B 12.3179 
8 *228:46 *228:59 6.44643 
9 *228:59 *4536:A2 21.3714 
10 *228:59 *4469:B 13.8 
11 *228:40 *4587:A2 10.2464 
*END

*D_NET *229 0.00541902
*CONN
*I *4463:C I *D sky130_fd_sc_hd__and3_4
*I *4503:A I *D sky130_fd_sc_hd__or2_4
*I *4502:B1 I *D sky130_fd_sc_hd__a31oi_1
*I *4497:B I *D sky130_fd_sc_hd__or3b_4
*I *4464:B I *D sky130_fd_sc_hd__nand2b_4
*I *4472:B I *D sky130_fd_sc_hd__nand2_4
*I *4689:X O *D sky130_fd_sc_hd__buf_2
*CAP
1 *4463:C 2.23854e-05
2 *4503:A 0.000290253
3 *4502:B1 0
4 *4497:B 0
5 *4464:B 1.86116e-05
6 *4472:B 0
7 *4689:X 0.000243827
8 *229:33 0.000124628
9 *229:22 0.000534526
10 *229:20 0.000624829
11 *229:14 0.00078713
12 *229:8 0.00056677
13 *4464:B *231:37 0.000144773
14 *4464:B *240:23 0.00014285
15 *4503:A *4466:B 0
16 *229:14 *4466:B 0
17 *229:20 *4502:A1 1.97695e-05
18 *229:20 *231:18 1.32552e-05
19 *229:20 *231:20 2.65105e-05
20 *229:22 *4472:A 5.33005e-05
21 *229:22 *231:20 0.00118554
22 *229:33 *231:35 0.000148911
23 *4463:A *229:8 2.72859e-05
24 *4474:B *229:20 0
25 *4486:A1 *4503:A 0.000184745
26 *4502:A2 *229:20 0.000108742
27 *157:14 *4503:A 0
28 *157:14 *229:14 5.1139e-05
29 *157:18 *4503:A 9.92409e-05
30 *157:80 *4503:A 0
31 *158:12 *229:33 0
*RES
1 *4689:X *229:8 13.1393 
2 *229:8 *229:14 9.125 
3 *229:14 *229:20 7.71429 
4 *229:20 *229:22 11.625 
5 *229:22 *4472:B 9.3 
6 *229:22 *229:33 11.25 
7 *229:33 *4464:B 10.6571 
8 *229:33 *4497:B 9.3 
9 *229:20 *4502:B1 9.3 
10 *229:14 *4503:A 19.6393 
11 *229:8 *4463:C 9.72857 
*END

*D_NET *230 0.00402283
*CONN
*I *4470:B I *D sky130_fd_sc_hd__nor2_4
*I *4475:A_N I *D sky130_fd_sc_hd__and2b_4
*I *4536:B1_N I *D sky130_fd_sc_hd__a21bo_4
*I *4661:X O *D sky130_fd_sc_hd__clkbuf_2
*CAP
1 *4470:B 2.23854e-05
2 *4475:A_N 0
3 *4536:B1_N 0.000641705
4 *4661:X 0.000379954
5 *230:14 0.0011191
6 *230:12 0.000879739
7 *4470:B *4470:A 0
8 *230:12 *4470:A 0.000271648
9 *230:12 *241:43 6.75007e-05
10 *4475:B *4536:B1_N 0
11 *4501:A1 *4536:B1_N 6.8646e-06
12 *4501:A1 *230:14 5.52238e-05
13 *4501:A2 *230:14 7.32955e-05
14 *162:12 *230:12 0.000128161
15 *164:10 *230:12 1.74352e-05
16 *169:26 *4536:B1_N 7.60306e-05
17 *169:26 *230:14 9.90431e-05
18 *228:8 *4536:B1_N 0.000184745
*RES
1 *4661:X *230:12 27.05 
2 *230:12 *230:14 8.75 
3 *230:14 *4536:B1_N 29.7107 
4 *230:14 *4475:A_N 9.3 
5 *230:12 *4470:B 9.72857 
*END

*D_NET *231 0.0112572
*CONN
*I *4477:B1 I *D sky130_fd_sc_hd__o31ai_1
*I *4474:A I *D sky130_fd_sc_hd__and3_1
*I *4502:A1 I *D sky130_fd_sc_hd__a31oi_1
*I *4497:A I *D sky130_fd_sc_hd__or3b_4
*I *4521:A2 I *D sky130_fd_sc_hd__o41a_1
*I *4635:A I *D sky130_fd_sc_hd__clkbuf_1
*I *4519:A I *D sky130_fd_sc_hd__or3_4
*I *4472:A I *D sky130_fd_sc_hd__nand2_4
*I *4662:X O *D sky130_fd_sc_hd__buf_2
*CAP
1 *4477:B1 0
2 *4474:A 0
3 *4502:A1 2.30153e-05
4 *4497:A 0
5 *4521:A2 0.000235307
6 *4635:A 0.000509928
7 *4519:A 5.98455e-05
8 *4472:A 0.000218309
9 *4662:X 0.000594087
10 *231:52 0.000935013
11 *231:37 0.000522926
12 *231:35 0.000361322
13 *231:20 0.000726267
14 *231:18 0.000507151
15 *231:16 0.000867692
16 *231:12 0.00139758
17 *4519:A *4519:B 5.7661e-06
18 *4519:A *240:27 5.33334e-05
19 *4521:A2 *4519:C 0.000223592
20 *4521:A2 *4551:A 0.000307885
21 *231:12 *4465:B 4.28103e-05
22 *231:12 *4662:A 7.34839e-06
23 *231:16 *4477:A3 4.01768e-05
24 *231:37 *240:23 0.00025381
25 *231:37 *240:25 4.72917e-05
26 *231:37 *240:27 6.05161e-06
27 *231:52 *4519:C 0.000175519
28 *4464:B *231:37 0.000144773
29 *4474:C *231:16 0.000127518
30 *4477:A1 *231:12 0
31 *4477:A2 *231:12 0
32 *4477:A2 *231:16 6.10112e-05
33 *4502:A2 *4502:A1 3.57366e-05
34 *4502:A2 *231:18 1.74352e-05
35 *4502:A3 *231:16 0.000225609
36 *4502:A3 *231:18 5.52238e-05
37 *4688:A *231:12 0.000266092
38 *71:8 *4521:A2 0
39 *71:8 *231:52 0
40 *151:23 *231:16 6.4443e-05
41 *158:12 *4521:A2 5.84547e-05
42 *158:12 *231:52 0
43 *164:18 *4521:A2 0.000123295
44 *170:12 *231:12 2.60064e-05
45 *191:10 *231:35 3.5707e-05
46 *196:10 *231:20 0.000446603
47 *229:20 *4502:A1 1.97695e-05
48 *229:20 *231:18 1.32552e-05
49 *229:20 *231:20 2.65105e-05
50 *229:22 *4472:A 5.33005e-05
51 *229:22 *231:20 0.00118554
52 *229:33 *231:35 0.000148911
*RES
1 *4662:X *231:12 26.9071 
2 *231:12 *231:16 14.1071 
3 *231:16 *231:18 1.35714 
4 *231:18 *231:20 12.0357 
5 *231:20 *4472:A 12.7286 
6 *231:20 *231:35 11.25 
7 *231:35 *231:37 6.69643 
8 *231:37 *4519:A 10.675 
9 *231:37 *231:52 7.78571 
10 *231:52 *4635:A 22.1393 
11 *231:52 *4521:A2 20.6036 
12 *231:35 *4497:A 9.3 
13 *231:18 *4502:A1 10.0321 
14 *231:16 *4474:A 9.3 
15 *231:12 *4477:B1 9.3 
*END

*D_NET *232 0.0127875
*CONN
*I *4457:A I *D sky130_fd_sc_hd__nand2_1
*I *4461:A1 I *D sky130_fd_sc_hd__mux2_1
*I *4460:A_N I *D sky130_fd_sc_hd__and2b_1
*I *4651:X O *D sky130_fd_sc_hd__buf_1
*CAP
1 *4457:A 0
2 *4461:A1 7.75823e-05
3 *4460:A_N 0.000214411
4 *4651:X 0
5 *232:34 0.000291993
6 *232:20 0.00160005
7 *232:10 0.00399182
8 *232:6 0.00239178
9 *4461:A1 *4461:S 0.000125724
10 *232:10 *239:10 0
11 *232:20 *4459:B 5.23665e-05
12 *232:20 *248:14 0.000490416
13 *232:20 *248:16 0.00140754
14 *232:20 *248:18 0.00110674
15 *232:20 *248:24 0.00013077
16 *232:20 *248:28 0.000188586
17 *232:34 *4458:A_N 2.565e-05
18 *232:34 *248:28 0.000446701
19 *232:34 *248:32 7.23326e-05
20 *4456:A0 *232:10 0
21 *4458:B *4461:A1 4.35048e-05
22 *4459:A *232:20 3.17148e-05
23 *4607:A *232:10 3.61008e-05
24 *4608:B *232:10 6.16864e-05
25 *203:25 *232:10 0
26 *225:8 *232:10 0
*RES
1 *4651:X *232:6 13.8 
2 *232:6 *232:10 47.125 
3 *232:10 *232:20 43.1429 
4 *232:20 *4460:A_N 9.3 
5 *4460:A_N *232:34 14.7821 
6 *232:34 *4461:A1 20.2464 
7 *232:34 *4457:A 9.3 
*END

*D_NET *233 0.00864585
*CONN
*I *4658:A I *D sky130_fd_sc_hd__buf_2
*I *4485:B1 I *D sky130_fd_sc_hd__a31o_1
*I *4527:B I *D sky130_fd_sc_hd__or3b_1
*I *4521:B1 I *D sky130_fd_sc_hd__o41a_1
*I *4628:X O *D sky130_fd_sc_hd__clkbuf_1
*CAP
1 *4658:A 5.23239e-05
2 *4485:B1 0
3 *4527:B 0
4 *4521:B1 0.000737336
5 *4628:X 3.06683e-05
6 *233:22 0.00257057
7 *233:14 0.00208901
8 *233:6 0.000338768
9 *4521:B1 *4565:B1 2.78729e-05
10 *4521:B1 *245:25 5.71472e-05
11 *4521:B1 *245:27 6.13217e-05
12 *233:22 *246:8 5.52302e-05
13 *233:22 *246:10 0.000219711
14 *233:22 *246:14 0.0011339
15 *4485:A1 *233:14 8.15939e-05
16 *4525:D *4521:B1 0.000437756
17 *4527:C_N *4521:B1 0.000161417
18 *4528:B1 *233:22 0.000182694
19 *4537:B *4521:B1 1.15172e-05
20 *4551:B *4521:B1 4.57445e-05
21 *4565:A2 *4521:B1 4.46186e-06
22 *148:23 *233:14 9.57064e-05
23 *149:12 *233:14 4.1331e-06
24 *149:12 *233:22 0
25 *149:22 *233:22 0.000125072
26 *158:12 *4521:B1 0
27 *174:21 *4658:A 3.99614e-06
28 *174:21 *233:6 1.72894e-05
29 *174:21 *233:14 1.40415e-05
30 *193:8 *233:14 4.97121e-06
31 *193:8 *233:22 8.16036e-05
*RES
1 *4628:X *233:6 9.83571 
2 *233:6 *233:14 9.94643 
3 *233:14 *233:22 36.9821 
4 *233:22 *4521:B1 29.6393 
5 *233:22 *4527:B 9.3 
6 *233:14 *4485:B1 13.8 
7 *233:6 *4658:A 10.3357 
*END

*D_NET *234 0.00716277
*CONN
*I *4481:B1 I *D sky130_fd_sc_hd__a41o_1
*I *4687:A I *D sky130_fd_sc_hd__buf_2
*I *4629:X O *D sky130_fd_sc_hd__clkbuf_1
*CAP
1 *4481:B1 0.000340253
2 *4687:A 0.00121281
3 *4629:X 9.16967e-05
4 *234:6 0.00164476
5 *4481:B1 *237:68 0.000935726
6 *4482:B1 *4481:B1 8.91726e-05
7 *4500:A2 *4687:A 7.48091e-05
8 *4500:A2 *234:6 9.7659e-05
9 *4500:C1 *4687:A 0.00117669
10 *4544:A1 *4481:B1 0.0001882
11 *4563:A1 *4481:B1 4.57445e-05
12 *4571:A2 *4687:A 0.00030477
13 *4571:B1 *4687:A 1.1671e-05
14 *4572:B1 *4687:A 1.72894e-05
15 *95:12 *4481:B1 0
16 *223:14 *4687:A 3.37729e-05
17 *224:18 *4687:A 0.000873967
18 *226:10 *4481:B1 2.37761e-05
*RES
1 *4629:X *234:6 11.0679 
2 *234:6 *4687:A 36.0321 
3 *234:6 *4481:B1 30.2643 
*END

*D_NET *235 0.0170558
*CONN
*I *4519:C I *D sky130_fd_sc_hd__or3_4
*I *4551:A I *D sky130_fd_sc_hd__nand2_1
*I *4491:B I *D sky130_fd_sc_hd__and2_4
*I *4531:A I *D sky130_fd_sc_hd__or2_1
*I *4538:A1 I *D sky130_fd_sc_hd__a311o_1
*I *4515:A I *D sky130_fd_sc_hd__nand2_2
*I *4589:A2 I *D sky130_fd_sc_hd__o221a_1
*I *4661:A I *D sky130_fd_sc_hd__clkbuf_2
*I *4630:X O *D sky130_fd_sc_hd__clkbuf_1
*CAP
1 *4519:C 0.000173666
2 *4551:A 0.00050204
3 *4491:B 0
4 *4531:A 2.02422e-05
5 *4538:A1 0.00010178
6 *4515:A 1.7586e-05
7 *4589:A2 0.000189565
8 *4661:A 2.63024e-05
9 *4630:X 0
10 *235:86 0.000839239
11 *235:79 0.000279148
12 *235:33 0.000959435
13 *235:31 0.00199056
14 *235:25 0.00179683
15 *235:10 0.000806727
16 *235:4 0.000255954
17 *4519:C *237:29 8.27532e-05
18 *4551:A *4524:A1 0.000123288
19 *4661:A *4660:A 9.71197e-05
20 *235:10 *4660:A 0.000137983
21 *235:10 *238:38 8.66063e-05
22 *235:10 *241:43 5.7616e-05
23 *235:25 *4514:A 1.69115e-05
24 *235:25 *4535:A1 0.000125697
25 *235:25 *4537:A 4.25622e-05
26 *235:25 *241:43 2.31791e-05
27 *235:25 *243:12 0.000290993
28 *235:79 *4491:A 2.44318e-05
29 *235:79 *237:29 0.000224583
30 *235:79 *238:38 0.000243327
31 *235:86 *237:29 0.000744309
32 *4490:A2 *235:25 7.79781e-06
33 *4521:A2 *4519:C 0.000223592
34 *4521:A2 *4551:A 0.000307885
35 *4524:A2 *4551:A 7.34455e-06
36 *4524:B1 *4551:A 1.95962e-05
37 *4524:B2 *4551:A 0.000279678
38 *4534:A *235:31 4.18709e-05
39 *4534:A *235:33 9.41642e-05
40 *4534:B *235:33 5.52302e-05
41 *4534:C *235:33 9.41642e-05
42 *4535:B1 *4531:A 2.26424e-05
43 *4535:B1 *235:25 7.25207e-05
44 *4538:A2 *4538:A1 2.61337e-05
45 *4538:B1 *4538:A1 5.52302e-05
46 *4539:A1 *4538:A1 0.000148189
47 *4539:A1 *235:31 1.39726e-05
48 *4539:A2 *235:31 0.00014225
49 *4539:B1 *235:31 7.13226e-06
50 *4539:C1 *235:31 4.31755e-05
51 *4577:A3 *4531:A 4.66511e-05
52 *4577:A3 *235:25 0.00012553
53 *4581:B1 *235:25 0.000127439
54 *4590:A3 *4589:A2 0
55 *67:10 *235:33 9.38543e-05
56 *71:8 *4551:A 6.8646e-06
57 *87:18 *235:25 0
58 *87:43 *235:25 6.15146e-05
59 *149:32 *235:25 0
60 *158:12 *4519:C 0.000182552
61 *161:18 *4589:A2 0.00017309
62 *161:36 *235:33 0.000359835
63 *161:59 *4538:A1 2.70899e-05
64 *161:59 *235:31 0.000966472
65 *161:74 *235:31 8.76257e-05
66 *161:97 *235:31 8.27532e-05
67 *162:12 *235:10 2.61337e-05
68 *162:12 *235:25 0.000114121
69 *162:18 *235:25 0
70 *162:24 *4531:A 1.02504e-05
71 *163:10 *4589:A2 0
72 *163:23 *4589:A2 9.60939e-05
73 *163:50 *4515:A 2.08464e-05
74 *163:50 *4538:A1 5.71472e-05
75 *163:50 *4589:A2 2.44318e-05
76 *163:50 *235:33 0.000119548
77 *164:10 *235:25 0
78 *164:18 *4551:A 2.26327e-05
79 *164:45 *235:25 0
80 *178:82 *235:31 4.54337e-05
81 *185:10 *4551:A 0.000282984
82 *185:10 *235:86 0.000842836
83 *185:19 *4551:A 0.000105689
84 *195:12 *4519:C 4.58194e-05
85 *195:12 *4661:A 5.03772e-05
86 *195:12 *235:79 9.22103e-06
87 *195:12 *235:86 0.000143625
88 *197:68 *235:25 0.000412326
89 *223:34 *235:25 0.000166503
90 *231:52 *4519:C 0.000175519
*RES
1 *4630:X *235:4 9.3 
2 *235:4 *235:10 7.41071 
3 *235:10 *4661:A 14.7464 
4 *235:10 *235:25 16.875 
5 *235:25 *235:31 20.25 
6 *235:31 *235:33 14.0893 
7 *235:33 *4589:A2 21.9071 
8 *235:33 *4515:A 9.72857 
9 *235:31 *4538:A1 20.7821 
10 *235:25 *4531:A 14.5321 
11 *235:4 *235:79 3.73214 
12 *235:79 *4491:B 9.3 
13 *235:79 *235:86 10.3929 
14 *235:86 *4551:A 28.9429 
15 *235:86 *4519:C 24.2286 
*END

*D_NET *236 0.00395414
*CONN
*I *4499:A2 I *D sky130_fd_sc_hd__a21oi_4
*I *4465:A_N I *D sky130_fd_sc_hd__nand2b_1
*I *4477:A3 I *D sky130_fd_sc_hd__o31ai_1
*I *4476:C I *D sky130_fd_sc_hd__or3_4
*I *4689:A I *D sky130_fd_sc_hd__buf_2
*I *4631:X O *D sky130_fd_sc_hd__clkbuf_1
*CAP
1 *4499:A2 0.000289584
2 *4465:A_N 0
3 *4477:A3 0.000219155
4 *4476:C 0
5 *4689:A 0.000297514
6 *4631:X 0
7 *236:39 0.000475408
8 *236:28 0.000571199
9 *236:10 0.000588666
10 *236:4 0.000457372
11 *4499:A2 *4481:A2 2.59795e-05
12 *4499:A2 *4499:B1 6.05161e-06
13 *4499:A2 *242:23 1.02504e-05
14 *236:10 *4631:A 0.00010096
15 *236:28 *4631:A 4.88637e-05
16 *236:28 *237:23 9.33907e-05
17 *236:39 *4481:A2 4.25716e-05
18 *236:39 *237:23 7.92975e-05
19 *236:39 *242:23 0.000125724
20 *4481:A4 *4499:A2 8.50152e-05
21 *4485:A3 *4499:A2 6.65398e-05
22 *4499:A1 *4499:A2 0
23 *4499:A1 *236:39 0
24 *4688:A *4477:A3 9.80173e-05
25 *170:12 *236:10 0.000232399
26 *170:12 *236:28 0
27 *170:12 *236:39 0
28 *231:16 *4477:A3 4.01768e-05
*RES
1 *4631:X *236:4 9.3 
2 *236:4 *236:10 5.91071 
3 *236:10 *4689:A 14.3536 
4 *236:10 *4476:C 9.3 
5 *236:4 *236:28 7.69643 
6 *236:28 *4477:A3 17.6214 
7 *236:28 *236:39 4.375 
8 *236:39 *4465:A_N 13.8 
9 *236:39 *4499:A2 19.3536 
*END

*D_NET *237 0.0214699
*CONN
*I *4573:A I *D sky130_fd_sc_hd__nand2_1
*I *4563:A2 I *D sky130_fd_sc_hd__a31o_1
*I *4576:A2 I *D sky130_fd_sc_hd__a31o_1
*I *4630:A I *D sky130_fd_sc_hd__clkbuf_1
*I *4471:B I *D sky130_fd_sc_hd__or2_4
*I *4631:A I *D sky130_fd_sc_hd__clkbuf_1
*I *4632:X O *D sky130_fd_sc_hd__buf_1
*CAP
1 *4573:A 0.00115557
2 *4563:A2 0.000144082
3 *4576:A2 0.0004905
4 *4630:A 0
5 *4471:B 0.000255383
6 *4631:A 0.000146213
7 *4632:X 4.41446e-05
8 *237:68 0.00209234
9 *237:44 0.000535995
10 *237:31 0.000300877
11 *237:29 0.00223774
12 *237:23 0.00334429
13 *237:6 0.000504215
14 *4471:B *4468:B 0.000140933
15 *4471:B *4471:A 8.66063e-05
16 *4471:B *4490:A1 0.000101545
17 *4471:B *238:25 0
18 *4471:B *240:42 9.69119e-06
19 *4471:B *241:6 3.48705e-05
20 *4576:A2 *4490:A1 0.000545918
21 *4576:A2 *4576:A1 5.33334e-05
22 *4576:A2 *244:43 0.000292347
23 *237:44 *4490:A1 7.83659e-05
24 *237:44 *238:25 0
25 *237:68 *4481:A2 9.12446e-05
26 *4466:A *237:29 0.00083695
27 *4481:A3 *237:68 0.000100009
28 *4481:B1 *237:68 0.000935726
29 *4485:A3 *237:68 1.27784e-05
30 *4500:A2 *237:68 0
31 *4519:C *237:29 8.27532e-05
32 *4563:A1 *4573:A 0
33 *4563:A1 *237:68 0
34 *4563:A3 *4563:A2 3.57366e-05
35 *4563:B1 *4563:A2 0.00014285
36 *4563:B1 *237:68 0
37 *4688:A *237:68 0.000414755
38 *95:12 *4573:A 0
39 *95:14 *4563:A2 3.69047e-06
40 *150:8 *237:23 0.000126572
41 *150:10 *237:23 0.00018372
42 *150:10 *237:29 0.0010875
43 *162:12 *4576:A2 0
44 *162:18 *4576:A2 0.000687865
45 *162:105 *4573:A 5.52238e-05
46 *163:92 *4576:A2 3.82357e-05
47 *165:8 *4471:B 1.3142e-05
48 *165:8 *4576:A2 3.46889e-05
49 *170:12 *237:68 0.000365674
50 *170:32 *237:68 0
51 *188:10 *4573:A 0
52 *189:8 *4573:A 0.00112561
53 *190:14 *4573:A 0
54 *193:8 *237:68 0
55 *195:12 *237:29 0.000628908
56 *217:12 *4573:A 0.000579959
57 *226:10 *237:68 0
58 *235:79 *237:29 0.000224583
59 *235:86 *237:29 0.000744309
60 *236:10 *4631:A 0.00010096
61 *236:28 *4631:A 4.88637e-05
62 *236:28 *237:23 9.33907e-05
63 *236:39 *237:23 7.92975e-05
*RES
1 *4632:X *237:6 9.83571 
2 *237:6 *4631:A 12.6214 
3 *237:6 *237:23 16.0714 
4 *237:23 *237:29 47.8036 
5 *237:29 *237:31 4.5 
6 *237:31 *4471:B 19.05 
7 *237:31 *237:44 1.03571 
8 *237:44 *4630:A 13.8 
9 *237:44 *4576:A2 28.0679 
10 *237:23 *237:68 26.1786 
11 *237:68 *4563:A2 16.4071 
12 *237:68 *4573:A 41.6571 
*END

*D_NET *238 0.00625969
*CONN
*I *4491:A I *D sky130_fd_sc_hd__and2_4
*I *4518:B I *D sky130_fd_sc_hd__nand2_1
*I *4514:B I *D sky130_fd_sc_hd__nor2_1
*I *4660:A I *D sky130_fd_sc_hd__buf_2
*I *4470:A I *D sky130_fd_sc_hd__nor2_4
*I *4633:X O *D sky130_fd_sc_hd__clkbuf_1
*CAP
1 *4491:A 1.17005e-05
2 *4518:B 0.00012406
3 *4514:B 0.000186136
4 *4660:A 0.000379051
5 *4470:A 0.000241459
6 *4633:X 0.000126882
7 *238:42 0.000547758
8 *238:38 0.000350073
9 *238:25 0.000624733
10 *238:10 0.000513211
11 *4470:A *4468:A 5.33005e-05
12 *4514:B *4514:A 5.52238e-05
13 *4518:B *4518:A 4.27935e-05
14 *4518:B *244:69 5.33005e-05
15 *4660:A *241:43 0.000415273
16 *238:10 *240:42 0
17 *4470:B *4470:A 0
18 *4471:B *238:25 0
19 *4490:A2 *4518:B 7.2394e-05
20 *4537:B *4514:B 0.000129234
21 *4661:A *4660:A 9.71197e-05
22 *162:12 *238:10 3.34295e-05
23 *162:12 *238:25 0.000211913
24 *164:10 *4470:A 0.000186662
25 *165:8 *4518:B 0.00013615
26 *165:8 *238:42 0.00040746
27 *193:38 *4514:B 0.000344225
28 *195:12 *4491:A 2.89114e-05
29 *195:12 *4660:A 2.05612e-05
30 *195:12 *238:38 0.000102679
31 *230:12 *4470:A 0.000271648
32 *235:10 *4660:A 0.000137983
33 *235:10 *238:38 8.66063e-05
34 *235:79 *4491:A 2.44318e-05
35 *235:79 *238:38 0.000243327
36 *237:44 *238:25 0
*RES
1 *4633:X *238:10 15.675 
2 *238:10 *4470:A 19.6929 
3 *238:10 *238:25 7.35714 
4 *238:25 *4660:A 18.4786 
5 *238:25 *238:38 3.42857 
6 *238:38 *238:42 9.78571 
7 *238:42 *4514:B 18.4607 
8 *238:42 *4518:B 16.6929 
9 *238:38 *4491:A 9.83571 
*END

*D_NET *239 0.00816414
*CONN
*I *4462:A1 I *D sky130_fd_sc_hd__mux2_1
*I *4652:X O *D sky130_fd_sc_hd__buf_1
*CAP
1 *4462:A1 0.000736461
2 *4652:X 0
3 *239:10 0.00322643
4 *239:6 0.00248997
5 *239:10 *247:10 0
6 *239:10 *249:10 0
7 *4455:A0 *239:10 0
8 *4462:A0 *4462:A1 0.00171128
9 *4616:D *239:10 0
10 *4616:RESET_B *239:10 0
11 *4623:D *239:10 0
12 *54:10 *239:10 0
13 *54:12 *239:10 0
14 *232:10 *239:10 0
*RES
1 *4652:X *239:6 13.8 
2 *239:6 *239:10 48.0357 
3 *239:10 *4462:A1 25.4429 
*END

*D_NET *240 0.0059176
*CONN
*I *4466:B I *D sky130_fd_sc_hd__and2_4
*I *4464:A_N I *D sky130_fd_sc_hd__nand2b_4
*I *4519:B I *D sky130_fd_sc_hd__or3_4
*I *4471:A I *D sky130_fd_sc_hd__or2_4
*I *4468:B I *D sky130_fd_sc_hd__nor2_4
*I *4633:A I *D sky130_fd_sc_hd__clkbuf_1
*I *4497:C_N I *D sky130_fd_sc_hd__or3b_4
*I *4634:X O *D sky130_fd_sc_hd__buf_1
*CAP
1 *4466:B 0.000299797
2 *4464:A_N 1.11927e-05
3 *4519:B 1.33452e-05
4 *4471:A 1.79388e-05
5 *4468:B 6.69944e-05
6 *4633:A 0.000139168
7 *4497:C_N 0
8 *4634:X 0.000164613
9 *240:42 0.000206384
10 *240:27 0.0010043
11 *240:25 0.000807742
12 *240:23 0.000505798
13 *240:14 0.000869018
14 *240:10 0.000889534
15 *4468:B *4468:A 7.61932e-05
16 *4468:B *241:6 4.58976e-05
17 *4471:A *241:6 5.33433e-05
18 *4464:B *240:23 0.00014285
19 *4471:B *4468:B 0.000140933
20 *4471:B *4471:A 8.66063e-05
21 *4471:B *240:42 9.69119e-06
22 *4503:A *4466:B 0
23 *4519:A *4519:B 5.7661e-06
24 *4519:A *240:27 5.33334e-05
25 *196:10 *4466:B 0
26 *229:14 *4466:B 0
27 *231:37 *240:23 0.00025381
28 *231:37 *240:25 4.72917e-05
29 *231:37 *240:27 6.05161e-06
30 *238:10 *240:42 0
*RES
1 *4634:X *240:10 16.2821 
2 *240:10 *240:14 11.6071 
3 *240:14 *4497:C_N 9.3 
4 *240:14 *240:23 8.35714 
5 *240:23 *240:25 0.946429 
6 *240:25 *240:27 11.625 
7 *240:27 *4633:A 11.4964 
8 *240:27 *240:42 10.9464 
9 *240:42 *4468:B 11.4786 
10 *240:42 *4471:A 10.2464 
11 *240:25 *4519:B 9.72857 
12 *240:23 *4464:A_N 9.72857 
13 *240:10 *4466:B 18.7821 
*END

*D_NET *241 0.00597909
*CONN
*I *4659:A I *D sky130_fd_sc_hd__buf_2
*I *4501:B1 I *D sky130_fd_sc_hd__o21a_4
*I *4490:A1 I *D sky130_fd_sc_hd__o21ai_1
*I *4468:A I *D sky130_fd_sc_hd__nor2_4
*I *4635:X O *D sky130_fd_sc_hd__clkbuf_1
*CAP
1 *4659:A 0
2 *4501:B1 0.000223087
3 *4490:A1 0.000241025
4 *4468:A 0.000565134
5 *4635:X 0.000188576
6 *241:43 0.000597943
7 *241:6 0.000619879
8 *4468:B *4468:A 7.61932e-05
9 *4468:B *241:6 4.58976e-05
10 *4470:A *4468:A 5.33005e-05
11 *4471:A *241:6 5.33433e-05
12 *4471:B *4490:A1 0.000101545
13 *4471:B *241:6 3.48705e-05
14 *4501:A1 *4501:B1 0
15 *4576:A2 *4490:A1 0.000545918
16 *4660:A *241:43 0.000415273
17 *162:12 *241:43 1.50087e-05
18 *164:10 *241:43 0
19 *165:8 *4490:A1 0.000706328
20 *195:10 *4501:B1 0
21 *195:12 *241:43 0.00101425
22 *227:10 *4501:B1 5.33433e-05
23 *228:8 *4501:B1 0.000102207
24 *228:8 *241:43 9.93135e-05
25 *230:12 *241:43 6.75007e-05
26 *235:10 *241:43 5.7616e-05
27 *235:25 *241:43 2.31791e-05
28 *237:44 *4490:A1 7.83659e-05
*RES
1 *4635:X *241:6 12.7107 
2 *241:6 *4468:A 12.7464 
3 *241:6 *4490:A1 27.5321 
4 *4468:A *241:43 32.2821 
5 *241:43 *4501:B1 22.925 
6 *241:43 *4659:A 9.3 
*END

*D_NET *242 0.00195208
*CONN
*I *4662:A I *D sky130_fd_sc_hd__buf_2
*I *4465:B I *D sky130_fd_sc_hd__nand2b_1
*I *4481:A2 I *D sky130_fd_sc_hd__a41o_1
*I *4636:X O *D sky130_fd_sc_hd__clkbuf_1
*CAP
1 *4662:A 5.41737e-06
2 *4465:B 9.1544e-05
3 *4481:A2 0.000289476
4 *4636:X 0
5 *242:23 0.000176027
6 *242:4 0.000368542
7 *4485:A3 *4481:A2 0.000271958
8 *4499:A1 *242:23 0
9 *4499:A2 *4481:A2 2.59795e-05
10 *4499:A2 *242:23 1.02504e-05
11 *150:8 *4481:A2 5.17614e-05
12 *150:10 *4481:A2 5.62995e-05
13 *170:12 *4481:A2 0.00029513
14 *231:12 *4465:B 4.28103e-05
15 *231:12 *4662:A 7.34839e-06
16 *236:39 *4481:A2 4.25716e-05
17 *236:39 *242:23 0.000125724
18 *237:68 *4481:A2 9.12446e-05
*RES
1 *4636:X *242:4 9.3 
2 *242:4 *4481:A2 25.9607 
3 *242:4 *242:23 10.6429 
4 *242:23 *4465:B 11.5768 
5 *242:23 *4662:A 9.45179 
*END

*D_NET *243 0.0116459
*CONN
*I *4533:C1 I *D sky130_fd_sc_hd__a211o_1
*I *4576:A1 I *D sky130_fd_sc_hd__a31o_1
*I *4535:A1 I *D sky130_fd_sc_hd__o21a_1
*I *4581:A1 I *D sky130_fd_sc_hd__a311o_1
*I *4557:A1 I *D sky130_fd_sc_hd__a21oi_1
*I *4532:B1 I *D sky130_fd_sc_hd__o21ai_1
*I *4589:A1 I *D sky130_fd_sc_hd__o221a_1
*I *4588:A I *D sky130_fd_sc_hd__nor2_1
*I *4583:A1 I *D sky130_fd_sc_hd__a221o_1
*I *4587:A1 I *D sky130_fd_sc_hd__o2111a_1
*I *4637:X O *D sky130_fd_sc_hd__buf_1
*CAP
1 *4533:C1 2.51629e-05
2 *4576:A1 0.000229046
3 *4535:A1 0.000219401
4 *4581:A1 0
5 *4557:A1 2.51629e-05
6 *4532:B1 0
7 *4589:A1 8.79302e-06
8 *4588:A 0.000136513
9 *4583:A1 1.24707e-05
10 *4587:A1 5.52379e-05
11 *4637:X 0
12 *243:68 0.00126637
13 *243:56 0.00127537
14 *243:39 0.000378147
15 *243:22 0.000564888
16 *243:16 0.000853455
17 *243:12 0.000669584
18 *243:8 0.00042303
19 *243:4 0.000318267
20 *243:16 *4537:A 9.90431e-05
21 *4490:A2 *243:16 9.02232e-05
22 *4532:A2 *243:56 0.000128154
23 *4532:A2 *243:68 5.33005e-05
24 *4535:B1 *4535:A1 9.60875e-05
25 *4558:A *243:39 4.73656e-05
26 *4576:A2 *4576:A1 5.33334e-05
27 *4576:B1 *4576:A1 2.06178e-05
28 *4577:A3 *4535:A1 0.000123288
29 *4581:A2 *4576:A1 2.72804e-05
30 *4581:A2 *243:8 1.90303e-05
31 *4581:A2 *243:12 0.000170654
32 *4581:A3 *243:16 5.52302e-05
33 *4583:A2 *4583:A1 2.89114e-05
34 *4583:A2 *243:39 7.1843e-05
35 *4583:A2 *243:56 1.21258e-05
36 *4583:B2 *243:39 2.84269e-05
37 *4583:C1 *243:39 3.34295e-05
38 *4587:B1 *243:22 9.25014e-06
39 *4589:B1 *243:68 2.47724e-05
40 *4589:B2 *4588:A 0.000100625
41 *4589:B2 *4589:A1 1.04232e-05
42 *4589:B2 *243:68 6.09143e-05
43 *4589:C1 *243:68 4.4873e-05
44 *4637:A *4576:A1 2.89016e-05
45 *84:10 *4587:A1 1.92905e-05
46 *84:10 *243:56 0.000148903
47 *87:18 *243:12 6.8646e-06
48 *87:43 *4576:A1 4.41105e-05
49 *88:12 *243:22 1.75989e-05
50 *88:12 *243:39 0.000103155
51 *134:12 *243:56 0
52 *134:12 *243:68 0.000241205
53 *162:18 *4576:A1 0.000145618
54 *163:50 *243:68 0.000967053
55 *163:69 *4535:A1 0.000146474
56 *163:92 *4576:A1 9.90367e-05
57 *164:74 *4535:A1 2.19302e-05
58 *164:74 *243:12 0
59 *169:26 *243:22 5.31122e-05
60 *169:26 *243:39 9.54798e-06
61 *169:35 *243:39 0.000187237
62 *183:23 *4535:A1 9.60875e-05
63 *197:68 *4533:C1 7.77652e-05
64 *197:68 *4587:A1 5.52302e-05
65 *197:68 *243:16 0.000374587
66 *197:68 *243:22 2.81891e-05
67 *223:34 *4535:A1 2.26424e-05
68 *223:45 *243:68 0.000225609
69 *227:70 *4533:C1 5.52238e-05
70 *227:70 *243:22 0.00018372
71 *235:25 *4535:A1 0.000125697
72 *235:25 *243:12 0.000290993
*RES
1 *4637:X *243:4 9.3 
2 *243:4 *243:8 5.44643 
3 *243:8 *243:12 8.26786 
4 *243:12 *243:16 11.6429 
5 *243:16 *243:22 8.64286 
6 *243:22 *4587:A1 14.8714 
7 *243:22 *243:39 9.42857 
8 *243:39 *4583:A1 9.83571 
9 *243:39 *243:56 12.3214 
10 *243:56 *243:68 27.2143 
11 *243:68 *4588:A 11.9071 
12 *243:68 *4589:A1 9.72857 
13 *243:56 *4532:B1 9.3 
14 *243:16 *4557:A1 9.3 
15 *243:12 *4581:A1 9.3 
16 *243:8 *4535:A1 19.8893 
17 *243:4 *4576:A1 22.9607 
18 *4557:A1 *4533:C1 19.9571 
*END

*D_NET *244 0.00565472
*CONN
*I *4518:A I *D sky130_fd_sc_hd__nand2_1
*I *4490:B1 I *D sky130_fd_sc_hd__o21ai_1
*I *4543:B1 I *D sky130_fd_sc_hd__a21oi_1
*I *4541:A1 I *D sky130_fd_sc_hd__a21o_1
*I *4514:A I *D sky130_fd_sc_hd__nor2_1
*I *4537:A I *D sky130_fd_sc_hd__nor2_1
*I *4638:X O *D sky130_fd_sc_hd__buf_1
*CAP
1 *4518:A 4.3644e-05
2 *4490:B1 0
3 *4543:B1 0.000224479
4 *4541:A1 3.04135e-05
5 *4514:A 6.39211e-05
6 *4537:A 0.000269875
7 *4638:X 0.000216194
8 *244:69 0.000161802
9 *244:43 0.000507217
10 *244:39 0.0004659
11 *244:6 0.000454572
12 *4490:A2 *4537:A 5.035e-05
13 *4490:A2 *244:6 3.69047e-06
14 *4490:A2 *244:69 1.98839e-05
15 *4514:B *4514:A 5.52238e-05
16 *4518:B *4518:A 4.27935e-05
17 *4518:B *244:69 5.33005e-05
18 *4537:B *4514:A 3.18676e-05
19 *4542:A1 *4543:B1 5.56825e-05
20 *4542:A2 *4543:B1 0.00014285
21 *4542:B1 *4543:B1 0.000183875
22 *4542:B1 *244:43 0.000171368
23 *4545:A2 *4543:B1 5.30637e-06
24 *4545:B1 *4543:B1 5.52238e-05
25 *4559:B1 *4543:B1 0.000230475
26 *4576:A2 *244:43 0.000292347
27 *67:41 *4543:B1 1.57414e-05
28 *70:8 *4518:A 3.18676e-05
29 *87:18 *4537:A 0.000127439
30 *87:43 *4543:B1 0
31 *149:32 *4514:A 0.000121573
32 *162:18 *244:43 0.000107756
33 *165:8 *4543:B1 0.000241205
34 *165:8 *244:43 0.000686504
35 *178:82 *4541:A1 5.33005e-05
36 *184:6 *4518:A 0.000144773
37 *184:6 *244:69 5.71472e-05
38 *193:38 *4514:A 7.6644e-05
39 *235:25 *4514:A 1.69115e-05
40 *235:25 *4537:A 4.25622e-05
41 *243:16 *4537:A 9.90431e-05
*RES
1 *4638:X *244:6 10.6571 
2 *244:6 *4537:A 22.5321 
3 *244:6 *4514:A 20.4786 
4 *4638:X *244:39 10.2464 
5 *244:39 *244:43 13.4286 
6 *244:43 *4541:A1 14.3357 
7 *244:43 *4543:B1 20.7821 
8 *244:39 *244:69 2.21429 
9 *244:69 *4490:B1 9.3 
10 *244:69 *4518:A 11.0857 
*END

*D_NET *245 0.013094
*CONN
*I *4504:A1 I *D sky130_fd_sc_hd__o211ai_1
*I *4564:A1 I *D sky130_fd_sc_hd__a31o_1
*I *4562:A I *D sky130_fd_sc_hd__or2_1
*I *4550:B2 I *D sky130_fd_sc_hd__a221o_1
*I *4566:A1 I *D sky130_fd_sc_hd__a311o_1
*I *4565:B1 I *D sky130_fd_sc_hd__a21oi_1
*I *4525:A I *D sky130_fd_sc_hd__or4_1
*I *4521:A1 I *D sky130_fd_sc_hd__o41a_1
*I *4524:A1 I *D sky130_fd_sc_hd__o22a_1
*I *4568:A I *D sky130_fd_sc_hd__or4_1
*I *4639:X O *D sky130_fd_sc_hd__buf_1
*CAP
1 *4504:A1 0.000170568
2 *4564:A1 4.30978e-05
3 *4562:A 0
4 *4550:B2 0.000459305
5 *4566:A1 1.66742e-05
6 *4565:B1 0.000284023
7 *4525:A 0
8 *4521:A1 0
9 *4524:A1 9.77039e-05
10 *4568:A 0
11 *4639:X 2.90726e-05
12 *245:86 0.000648233
13 *245:82 0.000232026
14 *245:80 0.000466839
15 *245:69 0.000858001
16 *245:27 0.000178646
17 *245:25 0.000169638
18 *245:21 0.000883155
19 *245:12 0.000655759
20 *245:8 0.000719451
21 *4473:A3 *4550:B2 0.00019712
22 *4500:C1 *245:80 0.000312743
23 *4504:B1 *4504:A1 0.000129572
24 *4513:B2 *4504:A1 0
25 *4516:B *4566:A1 5.52238e-05
26 *4521:A3 *4524:A1 5.52238e-05
27 *4521:B1 *4565:B1 2.78729e-05
28 *4521:B1 *245:25 5.71472e-05
29 *4521:B1 *245:27 6.13217e-05
30 *4524:A2 *4524:A1 0.000168224
31 *4524:B2 *4524:A1 1.17968e-05
32 *4525:D *4524:A1 9.60939e-05
33 *4525:D *245:27 0.000273269
34 *4527:C_N *4565:B1 6.74911e-05
35 *4537:B *4524:A1 2.28598e-05
36 *4537:B *245:27 0.000177351
37 *4551:A *4524:A1 0.000123288
38 *4551:B *4565:B1 0
39 *4562:B *4550:B2 5.71472e-05
40 *4563:A3 *4564:A1 8.71377e-05
41 *4563:A3 *245:69 8.48328e-05
42 *4563:A3 *245:80 0.00017275
43 *4563:A3 *245:86 0.000140933
44 *4564:A2 *4564:A1 5.52302e-05
45 *4565:A2 *4565:B1 0
46 *4566:C1 *4565:B1 3.67142e-05
47 *4566:C1 *245:69 7.63413e-05
48 *4568:C *245:21 0.000470543
49 *4568:C *245:25 9.77274e-05
50 *4568:C *245:27 5.52302e-05
51 *4568:D *245:21 5.52302e-05
52 *4570:A1 *245:69 1.85696e-05
53 *4570:A2 *245:69 2.21972e-05
54 *4570:B1 *245:12 0.000151061
55 *4570:B1 *245:69 8.03962e-05
56 *4572:A3 *4504:A1 0
57 *4572:A3 *245:80 0
58 *71:8 *4524:A1 0
59 *71:25 *4524:A1 0
60 *95:14 *4550:B2 7.3237e-05
61 *95:14 *4564:A1 0.000227539
62 *95:14 *245:86 0.00023366
63 *149:22 *245:69 7.38748e-05
64 *149:32 *245:8 3.17067e-05
65 *149:32 *245:69 4.46186e-06
66 *158:48 *4566:A1 1.40306e-05
67 *162:105 *4550:B2 9.89015e-05
68 *162:105 *245:69 0
69 *163:92 *4565:B1 2.28499e-05
70 *163:103 *245:69 9.46737e-05
71 *166:29 *4565:B1 0.000315894
72 *166:61 *4565:B1 0.000204463
73 *167:10 *245:69 6.62243e-05
74 *186:16 *4565:B1 0.000151341
75 *190:22 *4504:A1 4.43256e-05
76 *197:10 *245:69 0
77 *197:10 *245:80 0
78 *197:19 *4504:A1 2.30116e-06
79 *197:19 *245:80 8.10363e-06
80 *199:24 *4504:A1 0.000142856
81 *221:12 *4550:B2 0.000741781
82 *224:30 *4550:B2 0.00113097
*RES
1 *4639:X *245:8 14.5321 
2 *245:8 *245:12 7.91071 
3 *245:12 *4568:A 9.3 
4 *245:12 *245:21 10 
5 *245:21 *245:25 2.19643 
6 *245:25 *245:27 3.82143 
7 *245:27 *4524:A1 21.4964 
8 *245:27 *4521:A1 9.3 
9 *245:25 *4525:A 9.3 
10 *245:21 *4565:B1 26.05 
11 *245:8 *245:69 10.8036 
12 *245:69 *4566:A1 14.3357 
13 *245:69 *245:80 7.10714 
14 *245:80 *245:82 4.5 
15 *245:82 *245:86 4.66071 
16 *245:86 *4550:B2 33.983 
17 *245:86 *4562:A 9.3 
18 *245:82 *4564:A1 11.4786 
19 *245:80 *4504:A1 17.7107 
*END

*D_NET *246 0.00518603
*CONN
*I *4499:B1 I *D sky130_fd_sc_hd__a21oi_4
*I *4481:A1 I *D sky130_fd_sc_hd__a41o_1
*I *4569:A1 I *D sky130_fd_sc_hd__a41oi_1
*I *4567:B1 I *D sky130_fd_sc_hd__a21o_1
*I *4486:B1 I *D sky130_fd_sc_hd__o21a_1
*I *4640:X O *D sky130_fd_sc_hd__buf_1
*CAP
1 *4499:B1 0.000120995
2 *4481:A1 0
3 *4569:A1 7.90294e-05
4 *4567:B1 2.36895e-05
5 *4486:B1 0.00018539
6 *4640:X 6.91646e-05
7 *246:16 0.000295611
8 *246:14 0.00037622
9 *246:10 0.000272223
10 *246:8 0.000251724
11 *4481:A3 *246:10 5.33005e-05
12 *4481:A4 *4499:B1 0.000164499
13 *4481:A4 *246:8 4.08637e-05
14 *4481:A4 *246:10 5.33005e-05
15 *4485:A3 *4499:B1 1.41029e-05
16 *4486:A2 *4486:B1 1.32019e-05
17 *4487:A2 *4486:B1 7.43578e-06
18 *4487:A2 *4569:A1 5.84267e-05
19 *4487:A2 *246:16 9.65171e-05
20 *4499:A2 *4499:B1 6.05161e-06
21 *4567:A1 *4486:B1 0.000177941
22 *4567:A1 *246:16 9.25014e-06
23 *4567:A2 *4567:B1 5.52238e-05
24 *4567:A2 *4569:A1 0.000164561
25 *4567:A2 *246:16 0.00015234
26 *149:22 *246:8 5.31902e-05
27 *149:22 *246:10 5.36881e-05
28 *149:22 *246:14 0.000618569
29 *157:80 *4486:B1 0
30 *157:80 *246:16 0
31 *158:73 *4569:A1 5.33005e-05
32 *170:32 *4569:A1 5.33005e-05
33 *179:10 *4569:A1 5.58941e-05
34 *193:8 *4499:B1 0.000148189
35 *233:22 *246:8 5.52302e-05
36 *233:22 *246:10 0.000219711
37 *233:22 *246:14 0.0011339
*RES
1 *4640:X *246:8 11.0857 
2 *246:8 *246:10 2.17857 
3 *246:10 *246:14 15.3036 
4 *246:14 *246:16 2.55357 
5 *246:16 *4486:B1 17.8536 
6 *246:16 *4567:B1 14.3357 
7 *246:14 *4569:A1 16.5857 
8 *246:10 *4481:A1 9.3 
9 *246:8 *4499:B1 21.5143 
*END

*D_NET *247 0.0114271
*CONN
*I *4615:A I *D sky130_fd_sc_hd__inv_1
*I *4508:A I *D sky130_fd_sc_hd__or2_4
*I *4495:A1 I *D sky130_fd_sc_hd__o21a_4
*I *4496:A1 I *D sky130_fd_sc_hd__o21ai_2
*I *4614:A I *D sky130_fd_sc_hd__inv_1
*I *4613:A I *D sky130_fd_sc_hd__inv_1
*I *4451:A I *D sky130_fd_sc_hd__inv_6
*I *4478:A I *D sky130_fd_sc_hd__or2_4
*I *4455:S I *D sky130_fd_sc_hd__mux2_8
*I *4453:A I *D sky130_fd_sc_hd__or2_4
*I *4641:X O *D sky130_fd_sc_hd__clkbuf_2
*CAP
1 *4615:A 6.75626e-05
2 *4508:A 0
3 *4495:A1 6.73978e-05
4 *4496:A1 7.94974e-05
5 *4614:A 0.000397322
6 *4613:A 0
7 *4451:A 0
8 *4478:A 0
9 *4455:S 0.00041374
10 *4453:A 4.26984e-05
11 *4641:X 0.00067802
12 *247:92 0.000383903
13 *247:90 0.000489718
14 *247:80 0.000435839
15 *247:58 0.00128393
16 *247:54 0.00105053
17 *247:45 0.000154036
18 *247:36 0.000453329
19 *247:10 0.000786818
20 *4495:A1 *4494:B 0.000175512
21 *4615:A *249:10 3.67452e-05
22 *4615:A *253:12 0.00019117
23 *247:36 *4455:A1 9.4736e-05
24 *247:36 *249:10 0.000329742
25 *247:36 *253:12 8.32242e-05
26 *247:45 *249:10 0.000215147
27 *247:45 *253:12 0.000386176
28 *247:54 *249:10 9.56968e-05
29 *247:54 *253:12 0.000169405
30 *247:80 *249:10 0.000192931
31 *247:80 *253:12 0.000409348
32 *4454:B1 *247:36 0.0001098
33 *4455:A0 *4455:S 0.000177948
34 *4455:A0 *247:10 9.25014e-06
35 *4495:A2 *4495:A1 6.74815e-05
36 *4496:A2 *4496:A1 5.33334e-05
37 *4496:B1 *4495:A1 0
38 *4508:B *247:90 0.000224322
39 *4608:B *4615:A 2.80853e-05
40 *4616:RESET_B *4455:S 0.000168698
41 *4616:RESET_B *247:10 0.000153047
42 *4616:RESET_B *247:36 1.00375e-05
43 *4621:RESET_B *4614:A 4.02348e-05
44 *4623:D *4615:A 1.37743e-05
45 *4623:RESET_B *4615:A 0.000128161
46 *4623:RESET_B *247:80 5.83233e-05
47 *4643:A *247:90 4.10886e-05
48 *209:12 *4614:A 0.000159524
49 *209:18 *4496:A1 5.03772e-05
50 *209:18 *247:90 0.000445436
51 *209:18 *247:92 0.000323952
52 *213:25 *4614:A 0
53 *239:10 *247:10 0
*RES
1 *4641:X *247:10 24.4964 
2 *247:10 *4453:A 14.3357 
3 *247:10 *4455:S 7.11607 
4 *4455:S *247:36 14.6429 
5 *247:36 *4478:A 13.8 
6 *247:36 *247:45 4.98214 
7 *247:45 *4451:A 13.8 
8 *247:45 *247:54 2.25 
9 *247:54 *247:58 18.3348 
10 *247:58 *4613:A 9.3 
11 *247:58 *4614:A 25.9964 
12 *247:54 *247:80 5.28571 
13 *247:80 *247:90 12.0714 
14 *247:90 *247:92 5.875 
15 *247:92 *4496:A1 11.0679 
16 *247:92 *4495:A1 20.55 
17 *247:90 *4508:A 9.3 
18 *247:80 *4615:A 16.6348 
*END

*D_NET *248 0.0150572
*CONN
*I *4611:A I *D sky130_fd_sc_hd__inv_1
*I *4641:A I *D sky130_fd_sc_hd__clkbuf_2
*I *4610:A I *D sky130_fd_sc_hd__inv_1
*I *4609:A I *D sky130_fd_sc_hd__inv_1
*I *4462:S I *D sky130_fd_sc_hd__mux2_1
*I *4459:B I *D sky130_fd_sc_hd__nor2_1
*I *4460:B I *D sky130_fd_sc_hd__and2b_1
*I *4457:B I *D sky130_fd_sc_hd__nand2_1
*I *4461:S I *D sky130_fd_sc_hd__mux2_1
*I *4458:A_N I *D sky130_fd_sc_hd__nand2b_1
*I *4642:X O *D sky130_fd_sc_hd__buf_1
*CAP
1 *4611:A 0.000463835
2 *4641:A 0.000329089
3 *4610:A 0.000157243
4 *4609:A 0.000169691
5 *4462:S 0
6 *4459:B 2.8311e-05
7 *4460:B 0
8 *4457:B 0
9 *4461:S 0.000105747
10 *4458:A_N 0.0001072
11 *4642:X 0.0001122
12 *248:103 0.000792924
13 *248:32 0.000245094
14 *248:28 0.000273019
15 *248:24 0.00034678
16 *248:18 0.000459714
17 *248:16 0.0005023
18 *248:14 0.000832476
19 *248:8 0.000755423
20 *4609:A *4594:A 2.3541e-05
21 *4610:A *4596:B1 0.000416503
22 *4456:S *248:8 0.000153054
23 *4461:A1 *4461:S 0.000125724
24 *4462:A0 *248:14 0.00104267
25 *4462:A0 *248:16 0.0013942
26 *4462:A0 *248:18 0.000144773
27 *4597:A *248:14 0.00012401
28 *4597:B *248:8 4.97876e-05
29 *4597:B *248:14 0.000362538
30 *4617:CLK *4609:A 0
31 *4618:D *248:14 2.59355e-05
32 *4619:CLK *4641:A 0
33 *4619:D *4611:A 0.000197998
34 *4619:RESET_B *4611:A 0
35 *4625:A *4641:A 5.80217e-05
36 *4642:A *4641:A 1.92789e-05
37 *139:25 *4611:A 0.000100492
38 *139:25 *248:8 0.000347354
39 *139:25 *248:14 0.000236806
40 *153:10 *248:24 0.00010096
41 *154:10 *248:24 0.00010096
42 *204:56 *4609:A 1.40749e-05
43 *206:14 *4611:A 0.000183993
44 *206:23 *4611:A 0.000178593
45 *212:12 *4641:A 5.37963e-05
46 *214:24 *4641:A 0
47 *232:20 *4459:B 5.23665e-05
48 *232:20 *248:14 0.000490416
49 *232:20 *248:16 0.00140754
50 *232:20 *248:18 0.00110674
51 *232:20 *248:24 0.00013077
52 *232:20 *248:28 0.000188586
53 *232:34 *4458:A_N 2.565e-05
54 *232:34 *248:28 0.000446701
55 *232:34 *248:32 7.23326e-05
*RES
1 *4642:X *248:8 18.175 
2 *248:8 *248:14 20.8036 
3 *248:14 *248:16 13.2679 
4 *248:16 *248:18 10.3929 
5 *248:18 *248:24 3.96429 
6 *248:24 *248:28 6.5625 
7 *248:28 *248:32 1.00893 
8 *248:32 *4458:A_N 11.0857 
9 *248:32 *4461:S 20.55 
10 *248:28 *4457:B 9.3 
11 *248:24 *4460:B 9.3 
12 *248:18 *4459:B 10.2375 
13 *248:16 *4462:S 9.3 
14 *248:14 *4609:A 21.0902 
15 *248:8 *4610:A 17.7777 
16 *4642:X *248:103 9.3 
17 *248:103 *4641:A 23.2464 
18 *248:103 *4611:A 27.9384 
*END

*D_NET *249 0.0042768
*CONN
*I *4454:A2 I *D sky130_fd_sc_hd__o21ai_4
*I *4455:A1 I *D sky130_fd_sc_hd__mux2_8
*I *4653:X O *D sky130_fd_sc_hd__buf_1
*CAP
1 *4454:A2 3.72884e-05
2 *4455:A1 5.55109e-05
3 *4653:X 0.000905402
4 *249:10 0.000998201
5 *249:10 *253:12 4.06875e-05
6 *4615:A *249:10 3.67452e-05
7 *4616:RESET_B *4455:A1 0.000175512
8 *4616:RESET_B *249:10 9.25014e-06
9 *4623:D *249:10 0
10 *4623:RESET_B *249:10 0.000177934
11 *54:10 *249:10 0.000500943
12 *54:12 *249:10 0.00041107
13 *239:10 *249:10 0
14 *247:36 *4455:A1 9.4736e-05
15 *247:36 *249:10 0.000329742
16 *247:45 *249:10 0.000215147
17 *247:54 *249:10 9.56968e-05
18 *247:80 *249:10 0.000192931
*RES
1 *4653:X *249:10 38.9607 
2 *249:10 *4455:A1 6.75 
3 *249:10 *4454:A2 14.3357 
*END

*D_NET *250 0.000390873
*CONN
*I *4608:A I *D sky130_fd_sc_hd__xnor2_1
*I *4643:X O *D sky130_fd_sc_hd__dlygate4sd3_1
*CAP
1 *4608:A 6.33036e-05
2 *4643:X 6.33036e-05
3 *4608:B *4608:A 0.000232399
4 *4623:D *4608:A 3.18676e-05
*RES
1 *4643:X *4608:A 20.7786 
*END

*D_NET *251 0.0016665
*CONN
*I *4452:A I *D sky130_fd_sc_hd__inv_1
*I *4594:B I *D sky130_fd_sc_hd__xor2_1
*I *4644:X O *D sky130_fd_sc_hd__dlygate4sd3_1
*CAP
1 *4452:A 0
2 *4594:B 0.000600756
3 *4644:X 0.000222669
4 *251:6 0.000823426
5 *4616:D *4594:B 1.96517e-05
6 *4617:CLK *4594:B 0
*RES
1 *4644:X *251:6 13.0098 
2 *251:6 *4594:B 27.9295 
3 *251:6 *4452:A 9.3 
*END

*D_NET *252 0.00160258
*CONN
*I *4601:A I *D sky130_fd_sc_hd__xor2_1
*I *4645:X O *D sky130_fd_sc_hd__dlygate4sd3_1
*CAP
1 *4601:A 0.000531146
2 *4645:X 0.000531146
3 *141:19 *4601:A 1.00375e-05
4 *141:23 *4601:A 6.74815e-05
5 *207:14 *4601:A 0.000235232
6 *207:24 *4601:A 0.000227539
7 *214:20 *4601:A 0
*RES
1 *4645:X *4601:A 35.8321 
*END

*D_NET *253 0.00489812
*CONN
*I *4480:A2 I *D sky130_fd_sc_hd__o21a_4
*I *4479:A2 I *D sky130_fd_sc_hd__o21ai_1
*I *4654:X O *D sky130_fd_sc_hd__buf_1
*CAP
1 *4480:A2 9.52493e-05
2 *4479:A2 0.000110967
3 *4654:X 0.00130077
4 *253:12 0.00150699
5 *253:12 *4483:A1 0
6 *4479:B1 *4479:A2 6.05161e-06
7 *4615:A *253:12 0.00019117
8 *54:39 *4480:A2 6.5185e-05
9 *172:6 *4479:A2 6.42095e-05
10 *172:6 *253:12 0.000468685
11 *247:36 *253:12 8.32242e-05
12 *247:45 *253:12 0.000386176
13 *247:54 *253:12 0.000169405
14 *247:80 *253:12 0.000409348
15 *249:10 *253:12 4.06875e-05
*RES
1 *4654:X *253:12 44.5857 
2 *253:12 *4479:A2 10.6571 
3 *253:12 *4480:A2 20.2464 
*END

*D_NET *254 0.00115259
*CONN
*I *4594:A I *D sky130_fd_sc_hd__xor2_1
*I *4646:X O *D sky130_fd_sc_hd__dlygate4sd3_1
*CAP
1 *4594:A 0.000402817
2 *4646:X 0.000402817
3 *4609:A *4594:A 2.3541e-05
4 *204:56 *4594:A 0.000323419
*RES
1 *4646:X *4594:A 26.5464 
*END

*D_NET *255 0.00104704
*CONN
*I *4596:B1 I *D sky130_fd_sc_hd__a21oi_1
*I *4647:X O *D sky130_fd_sc_hd__dlygate4sd3_1
*CAP
1 *4596:B1 0.000275744
2 *4647:X 0.000275744
3 *4610:A *4596:B1 0.000416503
4 *4618:RESET_B *4596:B1 7.90536e-05
*RES
1 *4647:X *4596:B1 24.0643 
*END

*D_NET *256 0.0020064
*CONN
*I *4603:B1 I *D sky130_fd_sc_hd__a21oi_1
*I *4648:X O *D sky130_fd_sc_hd__dlygate4sd3_1
*CAP
1 *4603:B1 0.000489373
2 *4648:X 0.000489373
3 *4602:A *4603:B1 3.6322e-05
4 *4603:A2 *4603:B1 0.000354111
5 *4604:B *4603:B1 0.000119538
6 *4620:CLK *4603:B1 3.17148e-05
7 *4621:RESET_B *4603:B1 0.000101545
8 *4624:A *4603:B1 4.22135e-06
9 *4626:A *4603:B1 1.33251e-05
10 *4648:A *4603:B1 0
11 *207:14 *4603:B1 6.86792e-05
12 *207:24 *4603:B1 7.65719e-05
13 *208:18 *4603:B1 0
14 *213:6 *4603:B1 4.08637e-05
15 *213:12 *4603:B1 0.000180764
*RES
1 *4648:X *4603:B1 39.6714 
*END

*D_NET *257 0.00213602
*CONN
*I *4483:A1 I *D sky130_fd_sc_hd__mux2_8
*I *4655:X O *D sky130_fd_sc_hd__buf_1
*CAP
1 *4483:A1 0.000935634
2 *4655:X 0.000935634
3 *4643:A *4483:A1 6.19181e-05
4 *177:12 *4483:A1 0.000202835
5 *253:12 *4483:A1 0
*RES
1 *4655:X *4483:A1 35.3268 
*END

*D_NET *258 0.00231823
*CONN
*I *4494:B I *D sky130_fd_sc_hd__or2_4
*I *4656:X O *D sky130_fd_sc_hd__buf_1
*CAP
1 *4494:B 0.000806505
2 *4656:X 0.000806505
3 *4494:B *4509:A2 0.00024823
4 *4494:A *4494:B 5.71472e-05
5 *4495:A1 *4494:B 0.000175512
6 *4509:A1 *4494:B 0.000224331
*RES
1 *4656:X *4494:B 44.8679 
*END

*D_NET *259 0.00102294
*CONN
*I *4509:A2 I *D sky130_fd_sc_hd__o21ai_4
*I *4657:X O *D sky130_fd_sc_hd__buf_1
*CAP
1 *4509:A2 0.000387358
2 *4657:X 0.000387358
3 *4494:B *4509:A2 0.00024823
*RES
1 *4657:X *4509:A2 33.475 
*END
