*SPEF "ieee 1481-1999"
*DESIGN "tt_um_chip_rom"
*DATE "15:09:54 Wednesday September 16, 2026"
*VENDOR "The OpenROAD Project"
*PROGRAM "OpenROAD"
*VERSION "341650e72dad0dc8571822ff8c5d9c5e365327f7"
*DESIGN_FLOW "NAME_SCOPE LOCAL" "PIN_CAP NONE"
*DIVIDER /
*DELIMITER :
*BUS_DELIMITER []
*T_UNIT 1 NS
*C_UNIT 1 PF
*R_UNIT 1 OHM
*L_UNIT 1 HENRY

*NAME_MAP
*3 clk
*4 ena
*5 rst_n
*6 ui_in[0]
*7 ui_in[1]
*8 ui_in[2]
*9 ui_in[3]
*10 ui_in[4]
*11 ui_in[5]
*12 ui_in[6]
*13 ui_in[7]
*14 uio_in[0]
*15 uio_in[1]
*16 uio_in[2]
*17 uio_in[3]
*18 uio_in[4]
*19 uio_in[5]
*20 uio_in[6]
*21 uio_in[7]
*22 net24
*23 net25
*24 net26
*25 net27
*26 net28
*27 net29
*28 net30
*29 net31
*30 net47
*31 net48
*32 net49
*33 net50
*34 net51
*35 net52
*36 net53
*37 net54
*38 uo_out[0]
*39 uo_out[1]
*40 uo_out[2]
*41 uo_out[3]
*42 uo_out[4]
*43 uo_out[5]
*44 uo_out[6]
*45 uo_out[7]
*46 _000_
*47 _001_
*48 _002_
*49 _003_
*50 _004_
*51 _005_
*52 _006_
*53 _007_
*54 _008_
*55 _009_
*56 _010_
*57 _011_
*58 _012_
*59 _013_
*60 _014_
*61 _015_
*62 _016_
*63 _017_
*64 _018_
*65 _019_
*66 _020_
*67 _021_
*68 _022_
*69 _023_
*70 _024_
*71 _025_
*72 _026_
*73 _027_
*74 _028_
*75 _029_
*76 _030_
*77 _031_
*78 _032_
*79 _033_
*80 _034_
*81 _035_
*82 _036_
*83 _037_
*84 _038_
*85 _039_
*86 _040_
*87 _041_
*88 _042_
*89 _043_
*90 _044_
*91 _045_
*92 _046_
*93 _047_
*94 _048_
*95 _049_
*96 _050_
*97 _051_
*98 _052_
*99 _053_
*100 _054_
*101 _055_
*102 _056_
*103 _057_
*104 _058_
*105 _059_
*106 _060_
*107 _061_
*108 _062_
*109 _063_
*110 _064_
*111 _065_
*112 _066_
*113 _067_
*114 _068_
*115 _069_
*116 _070_
*117 _071_
*118 _072_
*119 _073_
*120 _074_
*121 _075_
*122 _076_
*123 _077_
*124 _078_
*125 _079_
*126 _080_
*127 _081_
*128 _082_
*129 _083_
*130 _084_
*131 _085_
*132 _086_
*133 _087_
*134 _088_
*135 _089_
*136 _090_
*137 _091_
*138 _092_
*139 _093_
*140 _094_
*141 _095_
*142 _096_
*143 _097_
*144 _098_
*145 _099_
*146 _100_
*147 _101_
*148 _102_
*149 _103_
*150 _104_
*151 _105_
*152 _106_
*153 _107_
*154 _108_
*155 _109_
*156 _110_
*157 _111_
*158 _112_
*159 _113_
*160 _114_
*161 _115_
*162 _116_
*163 _117_
*164 _118_
*165 _119_
*166 _120_
*167 _121_
*168 _122_
*169 _123_
*170 _124_
*171 _125_
*172 _126_
*173 _127_
*174 _128_
*175 _129_
*176 _130_
*177 _131_
*178 _132_
*179 _133_
*180 _134_
*181 _135_
*182 _136_
*183 _137_
*184 _138_
*185 _139_
*186 _140_
*187 _141_
*188 _142_
*189 _143_
*190 _144_
*191 _145_
*192 _146_
*193 _147_
*194 _148_
*195 _149_
*196 _150_
*197 _151_
*198 _152_
*199 addr_counter\[0\]
*200 addr_counter\[1\]
*201 addr_counter\[2\]
*202 addr_counter\[3\]
*203 addr_counter\[4\]
*204 addr_counter\[5\]
*205 addr_counter\[6\]
*206 addr_counter\[7\]
*207 clknet_0_clk
*208 clknet_1_0__leaf_clk
*209 clknet_1_1__leaf_clk
*210 net1
*211 net10
*212 net11
*213 net12
*214 net13
*215 net14
*216 net15
*217 net16
*218 net17
*219 net18
*220 net19
*221 net2
*222 net20
*223 net21
*224 net22
*225 net23
*226 net3
*227 net32
*228 net33
*229 net34
*230 net35
*231 net36
*232 net37
*233 net38
*234 net39
*235 net4
*236 net40
*237 net41
*238 net42
*239 net43
*240 net44
*241 net45
*242 net46
*243 net5
*244 net55
*245 net56
*246 net57
*247 net58
*248 net59
*249 net6
*250 net60
*251 net7
*252 net8
*253 net9
*254 FILLER_0_100
*255 FILLER_0_103
*256 FILLER_0_106
*257 FILLER_0_109
*258 FILLER_0_113
*259 FILLER_0_116
*260 FILLER_0_119
*261 FILLER_0_12
*262 FILLER_0_122
*263 FILLER_0_125
*264 FILLER_0_128
*265 FILLER_0_131
*266 FILLER_0_134
*267 FILLER_0_137
*268 FILLER_0_141
*269 FILLER_0_144
*270 FILLER_0_147
*271 FILLER_0_15
*272 FILLER_0_150
*273 FILLER_0_153
*274 FILLER_0_156
*275 FILLER_0_159
*276 FILLER_0_162
*277 FILLER_0_165
*278 FILLER_0_169
*279 FILLER_0_172
*280 FILLER_0_175
*281 FILLER_0_178
*282 FILLER_0_18
*283 FILLER_0_181
*284 FILLER_0_184
*285 FILLER_0_187
*286 FILLER_0_190
*287 FILLER_0_193
*288 FILLER_0_197
*289 FILLER_0_200
*290 FILLER_0_203
*291 FILLER_0_206
*292 FILLER_0_209
*293 FILLER_0_21
*294 FILLER_0_212
*295 FILLER_0_215
*296 FILLER_0_218
*297 FILLER_0_221
*298 FILLER_0_225
*299 FILLER_0_228
*300 FILLER_0_231
*301 FILLER_0_234
*302 FILLER_0_237
*303 FILLER_0_24
*304 FILLER_0_240
*305 FILLER_0_243
*306 FILLER_0_246
*307 FILLER_0_249
*308 FILLER_0_253
*309 FILLER_0_256
*310 FILLER_0_259
*311 FILLER_0_262
*312 FILLER_0_265
*313 FILLER_0_268
*314 FILLER_0_27
*315 FILLER_0_271
*316 FILLER_0_274
*317 FILLER_0_277
*318 FILLER_0_281
*319 FILLER_0_284
*320 FILLER_0_287
*321 FILLER_0_29
*322 FILLER_0_290
*323 FILLER_0_293
*324 FILLER_0_296
*325 FILLER_0_299
*326 FILLER_0_3
*327 FILLER_0_302
*328 FILLER_0_305
*329 FILLER_0_309
*330 FILLER_0_312
*331 FILLER_0_315
*332 FILLER_0_318
*333 FILLER_0_32
*334 FILLER_0_321
*335 FILLER_0_324
*336 FILLER_0_327
*337 FILLER_0_330
*338 FILLER_0_333
*339 FILLER_0_35
*340 FILLER_0_38
*341 FILLER_0_41
*342 FILLER_0_44
*343 FILLER_0_47
*344 FILLER_0_50
*345 FILLER_0_53
*346 FILLER_0_57
*347 FILLER_0_6
*348 FILLER_0_60
*349 FILLER_0_63
*350 FILLER_0_66
*351 FILLER_0_69
*352 FILLER_0_72
*353 FILLER_0_75
*354 FILLER_0_78
*355 FILLER_0_81
*356 FILLER_0_85
*357 FILLER_0_88
*358 FILLER_0_9
*359 FILLER_0_91
*360 FILLER_0_94
*361 FILLER_0_97
*362 FILLER_10_100
*363 FILLER_10_103
*364 FILLER_10_106
*365 FILLER_10_109
*366 FILLER_10_112
*367 FILLER_10_115
*368 FILLER_10_118
*369 FILLER_10_12
*370 FILLER_10_121
*371 FILLER_10_124
*372 FILLER_10_127
*373 FILLER_10_130
*374 FILLER_10_133
*375 FILLER_10_136
*376 FILLER_10_139
*377 FILLER_10_141
*378 FILLER_10_144
*379 FILLER_10_147
*380 FILLER_10_15
*381 FILLER_10_150
*382 FILLER_10_153
*383 FILLER_10_156
*384 FILLER_10_159
*385 FILLER_10_162
*386 FILLER_10_165
*387 FILLER_10_168
*388 FILLER_10_171
*389 FILLER_10_174
*390 FILLER_10_177
*391 FILLER_10_18
*392 FILLER_10_180
*393 FILLER_10_183
*394 FILLER_10_186
*395 FILLER_10_189
*396 FILLER_10_192
*397 FILLER_10_195
*398 FILLER_10_197
*399 FILLER_10_200
*400 FILLER_10_203
*401 FILLER_10_206
*402 FILLER_10_209
*403 FILLER_10_21
*404 FILLER_10_212
*405 FILLER_10_215
*406 FILLER_10_218
*407 FILLER_10_221
*408 FILLER_10_224
*409 FILLER_10_227
*410 FILLER_10_230
*411 FILLER_10_233
*412 FILLER_10_236
*413 FILLER_10_239
*414 FILLER_10_24
*415 FILLER_10_242
*416 FILLER_10_245
*417 FILLER_10_248
*418 FILLER_10_251
*419 FILLER_10_253
*420 FILLER_10_256
*421 FILLER_10_259
*422 FILLER_10_262
*423 FILLER_10_265
*424 FILLER_10_268
*425 FILLER_10_27
*426 FILLER_10_271
*427 FILLER_10_274
*428 FILLER_10_277
*429 FILLER_10_280
*430 FILLER_10_283
*431 FILLER_10_286
*432 FILLER_10_289
*433 FILLER_10_29
*434 FILLER_10_292
*435 FILLER_10_295
*436 FILLER_10_298
*437 FILLER_10_3
*438 FILLER_10_301
*439 FILLER_10_304
*440 FILLER_10_307
*441 FILLER_10_309
*442 FILLER_10_312
*443 FILLER_10_315
*444 FILLER_10_318
*445 FILLER_10_32
*446 FILLER_10_321
*447 FILLER_10_324
*448 FILLER_10_327
*449 FILLER_10_330
*450 FILLER_10_333
*451 FILLER_10_35
*452 FILLER_10_38
*453 FILLER_10_41
*454 FILLER_10_44
*455 FILLER_10_47
*456 FILLER_10_50
*457 FILLER_10_53
*458 FILLER_10_56
*459 FILLER_10_59
*460 FILLER_10_6
*461 FILLER_10_62
*462 FILLER_10_65
*463 FILLER_10_68
*464 FILLER_10_71
*465 FILLER_10_74
*466 FILLER_10_77
*467 FILLER_10_80
*468 FILLER_10_83
*469 FILLER_10_85
*470 FILLER_10_88
*471 FILLER_10_9
*472 FILLER_10_91
*473 FILLER_10_94
*474 FILLER_10_97
*475 FILLER_11_102
*476 FILLER_11_105
*477 FILLER_11_108
*478 FILLER_11_111
*479 FILLER_11_113
*480 FILLER_11_116
*481 FILLER_11_119
*482 FILLER_11_12
*483 FILLER_11_122
*484 FILLER_11_125
*485 FILLER_11_128
*486 FILLER_11_131
*487 FILLER_11_134
*488 FILLER_11_137
*489 FILLER_11_140
*490 FILLER_11_143
*491 FILLER_11_146
*492 FILLER_11_149
*493 FILLER_11_15
*494 FILLER_11_152
*495 FILLER_11_155
*496 FILLER_11_158
*497 FILLER_11_161
*498 FILLER_11_164
*499 FILLER_11_167
*500 FILLER_11_169
*501 FILLER_11_172
*502 FILLER_11_175
*503 FILLER_11_178
*504 FILLER_11_18
*505 FILLER_11_181
*506 FILLER_11_184
*507 FILLER_11_187
*508 FILLER_11_190
*509 FILLER_11_193
*510 FILLER_11_196
*511 FILLER_11_199
*512 FILLER_11_202
*513 FILLER_11_205
*514 FILLER_11_208
*515 FILLER_11_21
*516 FILLER_11_211
*517 FILLER_11_214
*518 FILLER_11_217
*519 FILLER_11_220
*520 FILLER_11_223
*521 FILLER_11_225
*522 FILLER_11_228
*523 FILLER_11_231
*524 FILLER_11_234
*525 FILLER_11_237
*526 FILLER_11_24
*527 FILLER_11_240
*528 FILLER_11_243
*529 FILLER_11_246
*530 FILLER_11_249
*531 FILLER_11_252
*532 FILLER_11_255
*533 FILLER_11_258
*534 FILLER_11_261
*535 FILLER_11_264
*536 FILLER_11_267
*537 FILLER_11_27
*538 FILLER_11_270
*539 FILLER_11_273
*540 FILLER_11_276
*541 FILLER_11_279
*542 FILLER_11_281
*543 FILLER_11_284
*544 FILLER_11_287
*545 FILLER_11_290
*546 FILLER_11_293
*547 FILLER_11_296
*548 FILLER_11_299
*549 FILLER_11_3
*550 FILLER_11_30
*551 FILLER_11_302
*552 FILLER_11_305
*553 FILLER_11_308
*554 FILLER_11_311
*555 FILLER_11_314
*556 FILLER_11_317
*557 FILLER_11_320
*558 FILLER_11_323
*559 FILLER_11_326
*560 FILLER_11_329
*561 FILLER_11_33
*562 FILLER_11_332
*563 FILLER_11_36
*564 FILLER_11_39
*565 FILLER_11_42
*566 FILLER_11_45
*567 FILLER_11_48
*568 FILLER_11_51
*569 FILLER_11_54
*570 FILLER_11_57
*571 FILLER_11_6
*572 FILLER_11_60
*573 FILLER_11_63
*574 FILLER_11_66
*575 FILLER_11_69
*576 FILLER_11_72
*577 FILLER_11_75
*578 FILLER_11_78
*579 FILLER_11_81
*580 FILLER_11_84
*581 FILLER_11_87
*582 FILLER_11_9
*583 FILLER_11_90
*584 FILLER_11_93
*585 FILLER_11_96
*586 FILLER_11_99
*587 FILLER_12_100
*588 FILLER_12_103
*589 FILLER_12_106
*590 FILLER_12_109
*591 FILLER_12_112
*592 FILLER_12_115
*593 FILLER_12_118
*594 FILLER_12_12
*595 FILLER_12_121
*596 FILLER_12_124
*597 FILLER_12_127
*598 FILLER_12_130
*599 FILLER_12_133
*600 FILLER_12_136
*601 FILLER_12_139
*602 FILLER_12_141
*603 FILLER_12_144
*604 FILLER_12_147
*605 FILLER_12_15
*606 FILLER_12_150
*607 FILLER_12_153
*608 FILLER_12_156
*609 FILLER_12_159
*610 FILLER_12_162
*611 FILLER_12_165
*612 FILLER_12_168
*613 FILLER_12_171
*614 FILLER_12_174
*615 FILLER_12_177
*616 FILLER_12_18
*617 FILLER_12_180
*618 FILLER_12_183
*619 FILLER_12_186
*620 FILLER_12_189
*621 FILLER_12_192
*622 FILLER_12_195
*623 FILLER_12_197
*624 FILLER_12_200
*625 FILLER_12_203
*626 FILLER_12_206
*627 FILLER_12_209
*628 FILLER_12_21
*629 FILLER_12_212
*630 FILLER_12_215
*631 FILLER_12_218
*632 FILLER_12_221
*633 FILLER_12_224
*634 FILLER_12_227
*635 FILLER_12_230
*636 FILLER_12_233
*637 FILLER_12_236
*638 FILLER_12_239
*639 FILLER_12_24
*640 FILLER_12_242
*641 FILLER_12_245
*642 FILLER_12_248
*643 FILLER_12_251
*644 FILLER_12_253
*645 FILLER_12_256
*646 FILLER_12_259
*647 FILLER_12_262
*648 FILLER_12_265
*649 FILLER_12_268
*650 FILLER_12_27
*651 FILLER_12_271
*652 FILLER_12_274
*653 FILLER_12_277
*654 FILLER_12_280
*655 FILLER_12_283
*656 FILLER_12_286
*657 FILLER_12_289
*658 FILLER_12_29
*659 FILLER_12_292
*660 FILLER_12_295
*661 FILLER_12_298
*662 FILLER_12_3
*663 FILLER_12_301
*664 FILLER_12_304
*665 FILLER_12_307
*666 FILLER_12_309
*667 FILLER_12_312
*668 FILLER_12_315
*669 FILLER_12_318
*670 FILLER_12_32
*671 FILLER_12_321
*672 FILLER_12_324
*673 FILLER_12_327
*674 FILLER_12_330
*675 FILLER_12_333
*676 FILLER_12_35
*677 FILLER_12_38
*678 FILLER_12_41
*679 FILLER_12_44
*680 FILLER_12_47
*681 FILLER_12_50
*682 FILLER_12_53
*683 FILLER_12_56
*684 FILLER_12_59
*685 FILLER_12_6
*686 FILLER_12_62
*687 FILLER_12_65
*688 FILLER_12_68
*689 FILLER_12_71
*690 FILLER_12_74
*691 FILLER_12_77
*692 FILLER_12_80
*693 FILLER_12_83
*694 FILLER_12_85
*695 FILLER_12_88
*696 FILLER_12_9
*697 FILLER_12_91
*698 FILLER_12_94
*699 FILLER_12_97
*700 FILLER_13_102
*701 FILLER_13_105
*702 FILLER_13_108
*703 FILLER_13_111
*704 FILLER_13_113
*705 FILLER_13_116
*706 FILLER_13_119
*707 FILLER_13_12
*708 FILLER_13_122
*709 FILLER_13_125
*710 FILLER_13_128
*711 FILLER_13_131
*712 FILLER_13_134
*713 FILLER_13_137
*714 FILLER_13_140
*715 FILLER_13_143
*716 FILLER_13_146
*717 FILLER_13_149
*718 FILLER_13_15
*719 FILLER_13_152
*720 FILLER_13_155
*721 FILLER_13_158
*722 FILLER_13_161
*723 FILLER_13_164
*724 FILLER_13_167
*725 FILLER_13_169
*726 FILLER_13_172
*727 FILLER_13_175
*728 FILLER_13_178
*729 FILLER_13_18
*730 FILLER_13_181
*731 FILLER_13_184
*732 FILLER_13_187
*733 FILLER_13_190
*734 FILLER_13_193
*735 FILLER_13_196
*736 FILLER_13_199
*737 FILLER_13_202
*738 FILLER_13_205
*739 FILLER_13_208
*740 FILLER_13_21
*741 FILLER_13_211
*742 FILLER_13_214
*743 FILLER_13_217
*744 FILLER_13_220
*745 FILLER_13_223
*746 FILLER_13_225
*747 FILLER_13_228
*748 FILLER_13_231
*749 FILLER_13_234
*750 FILLER_13_237
*751 FILLER_13_24
*752 FILLER_13_240
*753 FILLER_13_243
*754 FILLER_13_246
*755 FILLER_13_249
*756 FILLER_13_252
*757 FILLER_13_255
*758 FILLER_13_258
*759 FILLER_13_261
*760 FILLER_13_264
*761 FILLER_13_267
*762 FILLER_13_27
*763 FILLER_13_270
*764 FILLER_13_273
*765 FILLER_13_276
*766 FILLER_13_279
*767 FILLER_13_281
*768 FILLER_13_284
*769 FILLER_13_287
*770 FILLER_13_290
*771 FILLER_13_293
*772 FILLER_13_296
*773 FILLER_13_299
*774 FILLER_13_3
*775 FILLER_13_30
*776 FILLER_13_302
*777 FILLER_13_305
*778 FILLER_13_308
*779 FILLER_13_311
*780 FILLER_13_314
*781 FILLER_13_317
*782 FILLER_13_320
*783 FILLER_13_323
*784 FILLER_13_326
*785 FILLER_13_329
*786 FILLER_13_33
*787 FILLER_13_332
*788 FILLER_13_36
*789 FILLER_13_39
*790 FILLER_13_42
*791 FILLER_13_45
*792 FILLER_13_48
*793 FILLER_13_51
*794 FILLER_13_54
*795 FILLER_13_57
*796 FILLER_13_6
*797 FILLER_13_60
*798 FILLER_13_63
*799 FILLER_13_66
*800 FILLER_13_69
*801 FILLER_13_72
*802 FILLER_13_75
*803 FILLER_13_78
*804 FILLER_13_81
*805 FILLER_13_84
*806 FILLER_13_87
*807 FILLER_13_9
*808 FILLER_13_90
*809 FILLER_13_93
*810 FILLER_13_96
*811 FILLER_13_99
*812 FILLER_14_100
*813 FILLER_14_103
*814 FILLER_14_106
*815 FILLER_14_109
*816 FILLER_14_112
*817 FILLER_14_115
*818 FILLER_14_118
*819 FILLER_14_12
*820 FILLER_14_121
*821 FILLER_14_124
*822 FILLER_14_127
*823 FILLER_14_130
*824 FILLER_14_133
*825 FILLER_14_136
*826 FILLER_14_139
*827 FILLER_14_141
*828 FILLER_14_144
*829 FILLER_14_147
*830 FILLER_14_15
*831 FILLER_14_150
*832 FILLER_14_153
*833 FILLER_14_156
*834 FILLER_14_159
*835 FILLER_14_162
*836 FILLER_14_165
*837 FILLER_14_168
*838 FILLER_14_171
*839 FILLER_14_174
*840 FILLER_14_177
*841 FILLER_14_18
*842 FILLER_14_180
*843 FILLER_14_183
*844 FILLER_14_186
*845 FILLER_14_189
*846 FILLER_14_192
*847 FILLER_14_195
*848 FILLER_14_197
*849 FILLER_14_200
*850 FILLER_14_203
*851 FILLER_14_206
*852 FILLER_14_209
*853 FILLER_14_21
*854 FILLER_14_212
*855 FILLER_14_215
*856 FILLER_14_218
*857 FILLER_14_221
*858 FILLER_14_224
*859 FILLER_14_227
*860 FILLER_14_230
*861 FILLER_14_233
*862 FILLER_14_236
*863 FILLER_14_239
*864 FILLER_14_24
*865 FILLER_14_242
*866 FILLER_14_245
*867 FILLER_14_248
*868 FILLER_14_251
*869 FILLER_14_253
*870 FILLER_14_256
*871 FILLER_14_259
*872 FILLER_14_262
*873 FILLER_14_265
*874 FILLER_14_268
*875 FILLER_14_27
*876 FILLER_14_271
*877 FILLER_14_274
*878 FILLER_14_277
*879 FILLER_14_280
*880 FILLER_14_283
*881 FILLER_14_286
*882 FILLER_14_289
*883 FILLER_14_29
*884 FILLER_14_292
*885 FILLER_14_295
*886 FILLER_14_298
*887 FILLER_14_3
*888 FILLER_14_301
*889 FILLER_14_304
*890 FILLER_14_307
*891 FILLER_14_309
*892 FILLER_14_312
*893 FILLER_14_315
*894 FILLER_14_318
*895 FILLER_14_32
*896 FILLER_14_321
*897 FILLER_14_324
*898 FILLER_14_327
*899 FILLER_14_330
*900 FILLER_14_333
*901 FILLER_14_35
*902 FILLER_14_38
*903 FILLER_14_41
*904 FILLER_14_44
*905 FILLER_14_47
*906 FILLER_14_50
*907 FILLER_14_53
*908 FILLER_14_56
*909 FILLER_14_59
*910 FILLER_14_6
*911 FILLER_14_62
*912 FILLER_14_65
*913 FILLER_14_68
*914 FILLER_14_71
*915 FILLER_14_74
*916 FILLER_14_77
*917 FILLER_14_80
*918 FILLER_14_83
*919 FILLER_14_85
*920 FILLER_14_88
*921 FILLER_14_9
*922 FILLER_14_91
*923 FILLER_14_94
*924 FILLER_14_97
*925 FILLER_15_102
*926 FILLER_15_105
*927 FILLER_15_108
*928 FILLER_15_111
*929 FILLER_15_113
*930 FILLER_15_116
*931 FILLER_15_119
*932 FILLER_15_12
*933 FILLER_15_122
*934 FILLER_15_125
*935 FILLER_15_128
*936 FILLER_15_131
*937 FILLER_15_134
*938 FILLER_15_137
*939 FILLER_15_140
*940 FILLER_15_143
*941 FILLER_15_146
*942 FILLER_15_149
*943 FILLER_15_15
*944 FILLER_15_152
*945 FILLER_15_155
*946 FILLER_15_158
*947 FILLER_15_161
*948 FILLER_15_164
*949 FILLER_15_167
*950 FILLER_15_169
*951 FILLER_15_172
*952 FILLER_15_175
*953 FILLER_15_178
*954 FILLER_15_18
*955 FILLER_15_181
*956 FILLER_15_184
*957 FILLER_15_187
*958 FILLER_15_190
*959 FILLER_15_193
*960 FILLER_15_196
*961 FILLER_15_199
*962 FILLER_15_202
*963 FILLER_15_205
*964 FILLER_15_208
*965 FILLER_15_21
*966 FILLER_15_211
*967 FILLER_15_214
*968 FILLER_15_217
*969 FILLER_15_220
*970 FILLER_15_223
*971 FILLER_15_225
*972 FILLER_15_228
*973 FILLER_15_231
*974 FILLER_15_234
*975 FILLER_15_237
*976 FILLER_15_24
*977 FILLER_15_240
*978 FILLER_15_243
*979 FILLER_15_246
*980 FILLER_15_249
*981 FILLER_15_252
*982 FILLER_15_255
*983 FILLER_15_258
*984 FILLER_15_261
*985 FILLER_15_264
*986 FILLER_15_267
*987 FILLER_15_27
*988 FILLER_15_270
*989 FILLER_15_273
*990 FILLER_15_276
*991 FILLER_15_279
*992 FILLER_15_281
*993 FILLER_15_284
*994 FILLER_15_287
*995 FILLER_15_290
*996 FILLER_15_293
*997 FILLER_15_296
*998 FILLER_15_299
*999 FILLER_15_3
*1000 FILLER_15_30
*1001 FILLER_15_302
*1002 FILLER_15_305
*1003 FILLER_15_308
*1004 FILLER_15_311
*1005 FILLER_15_314
*1006 FILLER_15_317
*1007 FILLER_15_320
*1008 FILLER_15_323
*1009 FILLER_15_326
*1010 FILLER_15_329
*1011 FILLER_15_33
*1012 FILLER_15_332
*1013 FILLER_15_36
*1014 FILLER_15_39
*1015 FILLER_15_42
*1016 FILLER_15_45
*1017 FILLER_15_48
*1018 FILLER_15_51
*1019 FILLER_15_54
*1020 FILLER_15_57
*1021 FILLER_15_6
*1022 FILLER_15_60
*1023 FILLER_15_63
*1024 FILLER_15_66
*1025 FILLER_15_69
*1026 FILLER_15_72
*1027 FILLER_15_75
*1028 FILLER_15_78
*1029 FILLER_15_81
*1030 FILLER_15_84
*1031 FILLER_15_87
*1032 FILLER_15_9
*1033 FILLER_15_90
*1034 FILLER_15_93
*1035 FILLER_15_96
*1036 FILLER_15_99
*1037 FILLER_16_100
*1038 FILLER_16_103
*1039 FILLER_16_106
*1040 FILLER_16_109
*1041 FILLER_16_112
*1042 FILLER_16_115
*1043 FILLER_16_118
*1044 FILLER_16_12
*1045 FILLER_16_121
*1046 FILLER_16_124
*1047 FILLER_16_127
*1048 FILLER_16_130
*1049 FILLER_16_133
*1050 FILLER_16_136
*1051 FILLER_16_139
*1052 FILLER_16_141
*1053 FILLER_16_144
*1054 FILLER_16_147
*1055 FILLER_16_15
*1056 FILLER_16_150
*1057 FILLER_16_153
*1058 FILLER_16_156
*1059 FILLER_16_159
*1060 FILLER_16_162
*1061 FILLER_16_165
*1062 FILLER_16_168
*1063 FILLER_16_171
*1064 FILLER_16_174
*1065 FILLER_16_177
*1066 FILLER_16_18
*1067 FILLER_16_180
*1068 FILLER_16_183
*1069 FILLER_16_186
*1070 FILLER_16_189
*1071 FILLER_16_192
*1072 FILLER_16_195
*1073 FILLER_16_197
*1074 FILLER_16_200
*1075 FILLER_16_203
*1076 FILLER_16_206
*1077 FILLER_16_209
*1078 FILLER_16_21
*1079 FILLER_16_212
*1080 FILLER_16_215
*1081 FILLER_16_218
*1082 FILLER_16_221
*1083 FILLER_16_224
*1084 FILLER_16_227
*1085 FILLER_16_230
*1086 FILLER_16_233
*1087 FILLER_16_236
*1088 FILLER_16_239
*1089 FILLER_16_24
*1090 FILLER_16_242
*1091 FILLER_16_245
*1092 FILLER_16_248
*1093 FILLER_16_251
*1094 FILLER_16_253
*1095 FILLER_16_256
*1096 FILLER_16_259
*1097 FILLER_16_262
*1098 FILLER_16_265
*1099 FILLER_16_268
*1100 FILLER_16_27
*1101 FILLER_16_271
*1102 FILLER_16_274
*1103 FILLER_16_277
*1104 FILLER_16_280
*1105 FILLER_16_283
*1106 FILLER_16_286
*1107 FILLER_16_289
*1108 FILLER_16_29
*1109 FILLER_16_292
*1110 FILLER_16_295
*1111 FILLER_16_298
*1112 FILLER_16_3
*1113 FILLER_16_301
*1114 FILLER_16_304
*1115 FILLER_16_307
*1116 FILLER_16_309
*1117 FILLER_16_312
*1118 FILLER_16_315
*1119 FILLER_16_318
*1120 FILLER_16_32
*1121 FILLER_16_321
*1122 FILLER_16_324
*1123 FILLER_16_327
*1124 FILLER_16_330
*1125 FILLER_16_333
*1126 FILLER_16_35
*1127 FILLER_16_38
*1128 FILLER_16_41
*1129 FILLER_16_44
*1130 FILLER_16_47
*1131 FILLER_16_50
*1132 FILLER_16_53
*1133 FILLER_16_56
*1134 FILLER_16_59
*1135 FILLER_16_6
*1136 FILLER_16_62
*1137 FILLER_16_65
*1138 FILLER_16_68
*1139 FILLER_16_71
*1140 FILLER_16_74
*1141 FILLER_16_77
*1142 FILLER_16_80
*1143 FILLER_16_83
*1144 FILLER_16_85
*1145 FILLER_16_88
*1146 FILLER_16_9
*1147 FILLER_16_91
*1148 FILLER_16_94
*1149 FILLER_16_97
*1150 FILLER_17_102
*1151 FILLER_17_105
*1152 FILLER_17_108
*1153 FILLER_17_111
*1154 FILLER_17_113
*1155 FILLER_17_116
*1156 FILLER_17_119
*1157 FILLER_17_12
*1158 FILLER_17_122
*1159 FILLER_17_125
*1160 FILLER_17_128
*1161 FILLER_17_131
*1162 FILLER_17_134
*1163 FILLER_17_137
*1164 FILLER_17_140
*1165 FILLER_17_143
*1166 FILLER_17_146
*1167 FILLER_17_149
*1168 FILLER_17_15
*1169 FILLER_17_152
*1170 FILLER_17_155
*1171 FILLER_17_158
*1172 FILLER_17_161
*1173 FILLER_17_164
*1174 FILLER_17_167
*1175 FILLER_17_169
*1176 FILLER_17_172
*1177 FILLER_17_175
*1178 FILLER_17_178
*1179 FILLER_17_18
*1180 FILLER_17_181
*1181 FILLER_17_184
*1182 FILLER_17_187
*1183 FILLER_17_190
*1184 FILLER_17_193
*1185 FILLER_17_196
*1186 FILLER_17_199
*1187 FILLER_17_202
*1188 FILLER_17_205
*1189 FILLER_17_208
*1190 FILLER_17_21
*1191 FILLER_17_211
*1192 FILLER_17_214
*1193 FILLER_17_217
*1194 FILLER_17_220
*1195 FILLER_17_223
*1196 FILLER_17_225
*1197 FILLER_17_228
*1198 FILLER_17_231
*1199 FILLER_17_234
*1200 FILLER_17_237
*1201 FILLER_17_24
*1202 FILLER_17_240
*1203 FILLER_17_243
*1204 FILLER_17_246
*1205 FILLER_17_249
*1206 FILLER_17_252
*1207 FILLER_17_255
*1208 FILLER_17_258
*1209 FILLER_17_261
*1210 FILLER_17_264
*1211 FILLER_17_267
*1212 FILLER_17_27
*1213 FILLER_17_270
*1214 FILLER_17_273
*1215 FILLER_17_276
*1216 FILLER_17_279
*1217 FILLER_17_281
*1218 FILLER_17_284
*1219 FILLER_17_287
*1220 FILLER_17_290
*1221 FILLER_17_293
*1222 FILLER_17_296
*1223 FILLER_17_299
*1224 FILLER_17_3
*1225 FILLER_17_30
*1226 FILLER_17_302
*1227 FILLER_17_305
*1228 FILLER_17_308
*1229 FILLER_17_311
*1230 FILLER_17_314
*1231 FILLER_17_317
*1232 FILLER_17_320
*1233 FILLER_17_323
*1234 FILLER_17_326
*1235 FILLER_17_329
*1236 FILLER_17_33
*1237 FILLER_17_332
*1238 FILLER_17_36
*1239 FILLER_17_39
*1240 FILLER_17_42
*1241 FILLER_17_45
*1242 FILLER_17_48
*1243 FILLER_17_51
*1244 FILLER_17_54
*1245 FILLER_17_57
*1246 FILLER_17_6
*1247 FILLER_17_60
*1248 FILLER_17_63
*1249 FILLER_17_66
*1250 FILLER_17_69
*1251 FILLER_17_72
*1252 FILLER_17_75
*1253 FILLER_17_78
*1254 FILLER_17_81
*1255 FILLER_17_84
*1256 FILLER_17_87
*1257 FILLER_17_9
*1258 FILLER_17_90
*1259 FILLER_17_93
*1260 FILLER_17_96
*1261 FILLER_17_99
*1262 FILLER_18_111
*1263 FILLER_18_114
*1264 FILLER_18_117
*1265 FILLER_18_12
*1266 FILLER_18_120
*1267 FILLER_18_123
*1268 FILLER_18_126
*1269 FILLER_18_129
*1270 FILLER_18_132
*1271 FILLER_18_135
*1272 FILLER_18_138
*1273 FILLER_18_141
*1274 FILLER_18_144
*1275 FILLER_18_147
*1276 FILLER_18_15
*1277 FILLER_18_150
*1278 FILLER_18_153
*1279 FILLER_18_156
*1280 FILLER_18_159
*1281 FILLER_18_162
*1282 FILLER_18_165
*1283 FILLER_18_168
*1284 FILLER_18_171
*1285 FILLER_18_174
*1286 FILLER_18_177
*1287 FILLER_18_18
*1288 FILLER_18_180
*1289 FILLER_18_183
*1290 FILLER_18_186
*1291 FILLER_18_189
*1292 FILLER_18_192
*1293 FILLER_18_195
*1294 FILLER_18_197
*1295 FILLER_18_200
*1296 FILLER_18_203
*1297 FILLER_18_206
*1298 FILLER_18_209
*1299 FILLER_18_21
*1300 FILLER_18_212
*1301 FILLER_18_215
*1302 FILLER_18_218
*1303 FILLER_18_221
*1304 FILLER_18_224
*1305 FILLER_18_227
*1306 FILLER_18_230
*1307 FILLER_18_233
*1308 FILLER_18_236
*1309 FILLER_18_239
*1310 FILLER_18_24
*1311 FILLER_18_242
*1312 FILLER_18_245
*1313 FILLER_18_248
*1314 FILLER_18_251
*1315 FILLER_18_253
*1316 FILLER_18_256
*1317 FILLER_18_259
*1318 FILLER_18_262
*1319 FILLER_18_265
*1320 FILLER_18_268
*1321 FILLER_18_27
*1322 FILLER_18_271
*1323 FILLER_18_274
*1324 FILLER_18_277
*1325 FILLER_18_280
*1326 FILLER_18_283
*1327 FILLER_18_286
*1328 FILLER_18_289
*1329 FILLER_18_29
*1330 FILLER_18_292
*1331 FILLER_18_295
*1332 FILLER_18_298
*1333 FILLER_18_3
*1334 FILLER_18_301
*1335 FILLER_18_304
*1336 FILLER_18_307
*1337 FILLER_18_309
*1338 FILLER_18_312
*1339 FILLER_18_315
*1340 FILLER_18_318
*1341 FILLER_18_32
*1342 FILLER_18_321
*1343 FILLER_18_324
*1344 FILLER_18_327
*1345 FILLER_18_330
*1346 FILLER_18_333
*1347 FILLER_18_35
*1348 FILLER_18_38
*1349 FILLER_18_41
*1350 FILLER_18_44
*1351 FILLER_18_47
*1352 FILLER_18_50
*1353 FILLER_18_53
*1354 FILLER_18_56
*1355 FILLER_18_59
*1356 FILLER_18_6
*1357 FILLER_18_62
*1358 FILLER_18_65
*1359 FILLER_18_68
*1360 FILLER_18_71
*1361 FILLER_18_74
*1362 FILLER_18_77
*1363 FILLER_18_80
*1364 FILLER_18_83
*1365 FILLER_18_85
*1366 FILLER_18_88
*1367 FILLER_18_9
*1368 FILLER_18_91
*1369 FILLER_18_94
*1370 FILLER_18_97
*1371 FILLER_19_100
*1372 FILLER_19_103
*1373 FILLER_19_106
*1374 FILLER_19_111
*1375 FILLER_19_113
*1376 FILLER_19_116
*1377 FILLER_19_12
*1378 FILLER_19_127
*1379 FILLER_19_130
*1380 FILLER_19_133
*1381 FILLER_19_136
*1382 FILLER_19_139
*1383 FILLER_19_142
*1384 FILLER_19_145
*1385 FILLER_19_148
*1386 FILLER_19_15
*1387 FILLER_19_151
*1388 FILLER_19_154
*1389 FILLER_19_169
*1390 FILLER_19_172
*1391 FILLER_19_175
*1392 FILLER_19_178
*1393 FILLER_19_18
*1394 FILLER_19_181
*1395 FILLER_19_184
*1396 FILLER_19_187
*1397 FILLER_19_190
*1398 FILLER_19_193
*1399 FILLER_19_196
*1400 FILLER_19_199
*1401 FILLER_19_202
*1402 FILLER_19_21
*1403 FILLER_19_225
*1404 FILLER_19_228
*1405 FILLER_19_231
*1406 FILLER_19_234
*1407 FILLER_19_237
*1408 FILLER_19_24
*1409 FILLER_19_240
*1410 FILLER_19_243
*1411 FILLER_19_246
*1412 FILLER_19_249
*1413 FILLER_19_252
*1414 FILLER_19_255
*1415 FILLER_19_258
*1416 FILLER_19_261
*1417 FILLER_19_264
*1418 FILLER_19_267
*1419 FILLER_19_27
*1420 FILLER_19_270
*1421 FILLER_19_273
*1422 FILLER_19_276
*1423 FILLER_19_279
*1424 FILLER_19_281
*1425 FILLER_19_284
*1426 FILLER_19_287
*1427 FILLER_19_290
*1428 FILLER_19_293
*1429 FILLER_19_296
*1430 FILLER_19_299
*1431 FILLER_19_3
*1432 FILLER_19_30
*1433 FILLER_19_302
*1434 FILLER_19_305
*1435 FILLER_19_308
*1436 FILLER_19_311
*1437 FILLER_19_314
*1438 FILLER_19_317
*1439 FILLER_19_320
*1440 FILLER_19_323
*1441 FILLER_19_326
*1442 FILLER_19_329
*1443 FILLER_19_33
*1444 FILLER_19_332
*1445 FILLER_19_36
*1446 FILLER_19_39
*1447 FILLER_19_42
*1448 FILLER_19_45
*1449 FILLER_19_48
*1450 FILLER_19_51
*1451 FILLER_19_54
*1452 FILLER_19_57
*1453 FILLER_19_6
*1454 FILLER_19_60
*1455 FILLER_19_63
*1456 FILLER_19_79
*1457 FILLER_19_82
*1458 FILLER_19_85
*1459 FILLER_19_88
*1460 FILLER_19_9
*1461 FILLER_19_91
*1462 FILLER_19_94
*1463 FILLER_19_97
*1464 FILLER_1_102
*1465 FILLER_1_105
*1466 FILLER_1_108
*1467 FILLER_1_111
*1468 FILLER_1_113
*1469 FILLER_1_116
*1470 FILLER_1_119
*1471 FILLER_1_12
*1472 FILLER_1_122
*1473 FILLER_1_125
*1474 FILLER_1_128
*1475 FILLER_1_131
*1476 FILLER_1_134
*1477 FILLER_1_137
*1478 FILLER_1_140
*1479 FILLER_1_143
*1480 FILLER_1_146
*1481 FILLER_1_149
*1482 FILLER_1_15
*1483 FILLER_1_152
*1484 FILLER_1_155
*1485 FILLER_1_158
*1486 FILLER_1_161
*1487 FILLER_1_164
*1488 FILLER_1_167
*1489 FILLER_1_169
*1490 FILLER_1_172
*1491 FILLER_1_175
*1492 FILLER_1_178
*1493 FILLER_1_18
*1494 FILLER_1_181
*1495 FILLER_1_184
*1496 FILLER_1_187
*1497 FILLER_1_190
*1498 FILLER_1_193
*1499 FILLER_1_196
*1500 FILLER_1_199
*1501 FILLER_1_202
*1502 FILLER_1_205
*1503 FILLER_1_208
*1504 FILLER_1_21
*1505 FILLER_1_211
*1506 FILLER_1_214
*1507 FILLER_1_217
*1508 FILLER_1_220
*1509 FILLER_1_223
*1510 FILLER_1_225
*1511 FILLER_1_228
*1512 FILLER_1_231
*1513 FILLER_1_234
*1514 FILLER_1_237
*1515 FILLER_1_24
*1516 FILLER_1_240
*1517 FILLER_1_243
*1518 FILLER_1_246
*1519 FILLER_1_249
*1520 FILLER_1_252
*1521 FILLER_1_255
*1522 FILLER_1_258
*1523 FILLER_1_261
*1524 FILLER_1_264
*1525 FILLER_1_267
*1526 FILLER_1_27
*1527 FILLER_1_270
*1528 FILLER_1_273
*1529 FILLER_1_276
*1530 FILLER_1_279
*1531 FILLER_1_281
*1532 FILLER_1_284
*1533 FILLER_1_287
*1534 FILLER_1_290
*1535 FILLER_1_293
*1536 FILLER_1_296
*1537 FILLER_1_299
*1538 FILLER_1_3
*1539 FILLER_1_30
*1540 FILLER_1_302
*1541 FILLER_1_305
*1542 FILLER_1_308
*1543 FILLER_1_311
*1544 FILLER_1_314
*1545 FILLER_1_317
*1546 FILLER_1_320
*1547 FILLER_1_323
*1548 FILLER_1_326
*1549 FILLER_1_329
*1550 FILLER_1_33
*1551 FILLER_1_332
*1552 FILLER_1_36
*1553 FILLER_1_39
*1554 FILLER_1_42
*1555 FILLER_1_45
*1556 FILLER_1_48
*1557 FILLER_1_51
*1558 FILLER_1_54
*1559 FILLER_1_57
*1560 FILLER_1_6
*1561 FILLER_1_60
*1562 FILLER_1_63
*1563 FILLER_1_66
*1564 FILLER_1_69
*1565 FILLER_1_72
*1566 FILLER_1_75
*1567 FILLER_1_78
*1568 FILLER_1_81
*1569 FILLER_1_84
*1570 FILLER_1_87
*1571 FILLER_1_9
*1572 FILLER_1_90
*1573 FILLER_1_93
*1574 FILLER_1_96
*1575 FILLER_1_99
*1576 FILLER_20_100
*1577 FILLER_20_103
*1578 FILLER_20_106
*1579 FILLER_20_109
*1580 FILLER_20_112
*1581 FILLER_20_115
*1582 FILLER_20_12
*1583 FILLER_20_125
*1584 FILLER_20_128
*1585 FILLER_20_131
*1586 FILLER_20_134
*1587 FILLER_20_137
*1588 FILLER_20_141
*1589 FILLER_20_144
*1590 FILLER_20_147
*1591 FILLER_20_15
*1592 FILLER_20_150
*1593 FILLER_20_153
*1594 FILLER_20_158
*1595 FILLER_20_161
*1596 FILLER_20_164
*1597 FILLER_20_167
*1598 FILLER_20_170
*1599 FILLER_20_173
*1600 FILLER_20_176
*1601 FILLER_20_179
*1602 FILLER_20_18
*1603 FILLER_20_182
*1604 FILLER_20_185
*1605 FILLER_20_197
*1606 FILLER_20_200
*1607 FILLER_20_203
*1608 FILLER_20_206
*1609 FILLER_20_209
*1610 FILLER_20_21
*1611 FILLER_20_212
*1612 FILLER_20_215
*1613 FILLER_20_218
*1614 FILLER_20_221
*1615 FILLER_20_224
*1616 FILLER_20_227
*1617 FILLER_20_230
*1618 FILLER_20_233
*1619 FILLER_20_236
*1620 FILLER_20_239
*1621 FILLER_20_24
*1622 FILLER_20_242
*1623 FILLER_20_253
*1624 FILLER_20_256
*1625 FILLER_20_259
*1626 FILLER_20_262
*1627 FILLER_20_265
*1628 FILLER_20_268
*1629 FILLER_20_27
*1630 FILLER_20_271
*1631 FILLER_20_274
*1632 FILLER_20_277
*1633 FILLER_20_280
*1634 FILLER_20_283
*1635 FILLER_20_286
*1636 FILLER_20_289
*1637 FILLER_20_29
*1638 FILLER_20_292
*1639 FILLER_20_295
*1640 FILLER_20_298
*1641 FILLER_20_3
*1642 FILLER_20_301
*1643 FILLER_20_304
*1644 FILLER_20_307
*1645 FILLER_20_309
*1646 FILLER_20_312
*1647 FILLER_20_315
*1648 FILLER_20_318
*1649 FILLER_20_32
*1650 FILLER_20_321
*1651 FILLER_20_324
*1652 FILLER_20_327
*1653 FILLER_20_330
*1654 FILLER_20_333
*1655 FILLER_20_35
*1656 FILLER_20_50
*1657 FILLER_20_53
*1658 FILLER_20_56
*1659 FILLER_20_59
*1660 FILLER_20_6
*1661 FILLER_20_62
*1662 FILLER_20_65
*1663 FILLER_20_68
*1664 FILLER_20_80
*1665 FILLER_20_83
*1666 FILLER_20_85
*1667 FILLER_20_88
*1668 FILLER_20_9
*1669 FILLER_20_91
*1670 FILLER_20_94
*1671 FILLER_20_97
*1672 FILLER_21_101
*1673 FILLER_21_104
*1674 FILLER_21_113
*1675 FILLER_21_12
*1676 FILLER_21_123
*1677 FILLER_21_126
*1678 FILLER_21_129
*1679 FILLER_21_132
*1680 FILLER_21_135
*1681 FILLER_21_138
*1682 FILLER_21_141
*1683 FILLER_21_144
*1684 FILLER_21_147
*1685 FILLER_21_15
*1686 FILLER_21_150
*1687 FILLER_21_163
*1688 FILLER_21_166
*1689 FILLER_21_169
*1690 FILLER_21_172
*1691 FILLER_21_175
*1692 FILLER_21_178
*1693 FILLER_21_18
*1694 FILLER_21_181
*1695 FILLER_21_184
*1696 FILLER_21_197
*1697 FILLER_21_208
*1698 FILLER_21_21
*1699 FILLER_21_211
*1700 FILLER_21_214
*1701 FILLER_21_217
*1702 FILLER_21_220
*1703 FILLER_21_223
*1704 FILLER_21_225
*1705 FILLER_21_228
*1706 FILLER_21_231
*1707 FILLER_21_234
*1708 FILLER_21_237
*1709 FILLER_21_24
*1710 FILLER_21_261
*1711 FILLER_21_264
*1712 FILLER_21_267
*1713 FILLER_21_27
*1714 FILLER_21_270
*1715 FILLER_21_273
*1716 FILLER_21_3
*1717 FILLER_21_30
*1718 FILLER_21_301
*1719 FILLER_21_304
*1720 FILLER_21_307
*1721 FILLER_21_310
*1722 FILLER_21_313
*1723 FILLER_21_319
*1724 FILLER_21_322
*1725 FILLER_21_325
*1726 FILLER_21_328
*1727 FILLER_21_33
*1728 FILLER_21_331
*1729 FILLER_21_334
*1730 FILLER_21_44
*1731 FILLER_21_47
*1732 FILLER_21_50
*1733 FILLER_21_53
*1734 FILLER_21_57
*1735 FILLER_21_6
*1736 FILLER_21_60
*1737 FILLER_21_63
*1738 FILLER_21_66
*1739 FILLER_21_69
*1740 FILLER_21_83
*1741 FILLER_21_86
*1742 FILLER_21_89
*1743 FILLER_21_9
*1744 FILLER_21_92
*1745 FILLER_21_95
*1746 FILLER_21_98
*1747 FILLER_22_100
*1748 FILLER_22_103
*1749 FILLER_22_106
*1750 FILLER_22_109
*1751 FILLER_22_112
*1752 FILLER_22_115
*1753 FILLER_22_118
*1754 FILLER_22_12
*1755 FILLER_22_121
*1756 FILLER_22_128
*1757 FILLER_22_131
*1758 FILLER_22_134
*1759 FILLER_22_137
*1760 FILLER_22_141
*1761 FILLER_22_144
*1762 FILLER_22_147
*1763 FILLER_22_15
*1764 FILLER_22_150
*1765 FILLER_22_153
*1766 FILLER_22_156
*1767 FILLER_22_163
*1768 FILLER_22_166
*1769 FILLER_22_169
*1770 FILLER_22_172
*1771 FILLER_22_175
*1772 FILLER_22_178
*1773 FILLER_22_18
*1774 FILLER_22_181
*1775 FILLER_22_184
*1776 FILLER_22_187
*1777 FILLER_22_190
*1778 FILLER_22_193
*1779 FILLER_22_197
*1780 FILLER_22_200
*1781 FILLER_22_203
*1782 FILLER_22_206
*1783 FILLER_22_209
*1784 FILLER_22_21
*1785 FILLER_22_212
*1786 FILLER_22_215
*1787 FILLER_22_218
*1788 FILLER_22_221
*1789 FILLER_22_224
*1790 FILLER_22_227
*1791 FILLER_22_230
*1792 FILLER_22_233
*1793 FILLER_22_236
*1794 FILLER_22_239
*1795 FILLER_22_24
*1796 FILLER_22_242
*1797 FILLER_22_251
*1798 FILLER_22_260
*1799 FILLER_22_263
*1800 FILLER_22_266
*1801 FILLER_22_269
*1802 FILLER_22_27
*1803 FILLER_22_272
*1804 FILLER_22_275
*1805 FILLER_22_284
*1806 FILLER_22_287
*1807 FILLER_22_29
*1808 FILLER_22_291
*1809 FILLER_22_294
*1810 FILLER_22_297
*1811 FILLER_22_3
*1812 FILLER_22_300
*1813 FILLER_22_303
*1814 FILLER_22_306
*1815 FILLER_22_309
*1816 FILLER_22_312
*1817 FILLER_22_315
*1818 FILLER_22_32
*1819 FILLER_22_323
*1820 FILLER_22_326
*1821 FILLER_22_329
*1822 FILLER_22_332
*1823 FILLER_22_35
*1824 FILLER_22_38
*1825 FILLER_22_41
*1826 FILLER_22_44
*1827 FILLER_22_47
*1828 FILLER_22_50
*1829 FILLER_22_53
*1830 FILLER_22_56
*1831 FILLER_22_59
*1832 FILLER_22_6
*1833 FILLER_22_62
*1834 FILLER_22_65
*1835 FILLER_22_68
*1836 FILLER_22_71
*1837 FILLER_22_82
*1838 FILLER_22_85
*1839 FILLER_22_88
*1840 FILLER_22_9
*1841 FILLER_22_91
*1842 FILLER_22_94
*1843 FILLER_22_97
*1844 FILLER_23_101
*1845 FILLER_23_104
*1846 FILLER_23_107
*1847 FILLER_23_110
*1848 FILLER_23_12
*1849 FILLER_23_120
*1850 FILLER_23_123
*1851 FILLER_23_126
*1852 FILLER_23_129
*1853 FILLER_23_132
*1854 FILLER_23_135
*1855 FILLER_23_138
*1856 FILLER_23_149
*1857 FILLER_23_15
*1858 FILLER_23_152
*1859 FILLER_23_155
*1860 FILLER_23_158
*1861 FILLER_23_161
*1862 FILLER_23_164
*1863 FILLER_23_167
*1864 FILLER_23_169
*1865 FILLER_23_172
*1866 FILLER_23_175
*1867 FILLER_23_178
*1868 FILLER_23_18
*1869 FILLER_23_181
*1870 FILLER_23_184
*1871 FILLER_23_187
*1872 FILLER_23_195
*1873 FILLER_23_198
*1874 FILLER_23_201
*1875 FILLER_23_204
*1876 FILLER_23_207
*1877 FILLER_23_21
*1878 FILLER_23_210
*1879 FILLER_23_213
*1880 FILLER_23_216
*1881 FILLER_23_219
*1882 FILLER_23_229
*1883 FILLER_23_232
*1884 FILLER_23_235
*1885 FILLER_23_238
*1886 FILLER_23_24
*1887 FILLER_23_241
*1888 FILLER_23_244
*1889 FILLER_23_247
*1890 FILLER_23_250
*1891 FILLER_23_253
*1892 FILLER_23_256
*1893 FILLER_23_259
*1894 FILLER_23_267
*1895 FILLER_23_270
*1896 FILLER_23_273
*1897 FILLER_23_276
*1898 FILLER_23_279
*1899 FILLER_23_281
*1900 FILLER_23_284
*1901 FILLER_23_287
*1902 FILLER_23_290
*1903 FILLER_23_293
*1904 FILLER_23_296
*1905 FILLER_23_299
*1906 FILLER_23_3
*1907 FILLER_23_30
*1908 FILLER_23_302
*1909 FILLER_23_305
*1910 FILLER_23_33
*1911 FILLER_23_330
*1912 FILLER_23_333
*1913 FILLER_23_36
*1914 FILLER_23_39
*1915 FILLER_23_42
*1916 FILLER_23_45
*1917 FILLER_23_48
*1918 FILLER_23_51
*1919 FILLER_23_54
*1920 FILLER_23_57
*1921 FILLER_23_6
*1922 FILLER_23_60
*1923 FILLER_23_63
*1924 FILLER_23_66
*1925 FILLER_23_83
*1926 FILLER_23_86
*1927 FILLER_23_89
*1928 FILLER_23_9
*1929 FILLER_23_92
*1930 FILLER_23_95
*1931 FILLER_23_98
*1932 FILLER_24_100
*1933 FILLER_24_103
*1934 FILLER_24_110
*1935 FILLER_24_113
*1936 FILLER_24_116
*1937 FILLER_24_119
*1938 FILLER_24_12
*1939 FILLER_24_122
*1940 FILLER_24_125
*1941 FILLER_24_128
*1942 FILLER_24_131
*1943 FILLER_24_134
*1944 FILLER_24_137
*1945 FILLER_24_141
*1946 FILLER_24_150
*1947 FILLER_24_153
*1948 FILLER_24_156
*1949 FILLER_24_159
*1950 FILLER_24_162
*1951 FILLER_24_165
*1952 FILLER_24_176
*1953 FILLER_24_179
*1954 FILLER_24_182
*1955 FILLER_24_185
*1956 FILLER_24_188
*1957 FILLER_24_197
*1958 FILLER_24_200
*1959 FILLER_24_203
*1960 FILLER_24_206
*1961 FILLER_24_209
*1962 FILLER_24_212
*1963 FILLER_24_215
*1964 FILLER_24_218
*1965 FILLER_24_236
*1966 FILLER_24_239
*1967 FILLER_24_242
*1968 FILLER_24_245
*1969 FILLER_24_248
*1970 FILLER_24_251
*1971 FILLER_24_253
*1972 FILLER_24_256
*1973 FILLER_24_259
*1974 FILLER_24_26
*1975 FILLER_24_262
*1976 FILLER_24_265
*1977 FILLER_24_268
*1978 FILLER_24_271
*1979 FILLER_24_274
*1980 FILLER_24_277
*1981 FILLER_24_280
*1982 FILLER_24_283
*1983 FILLER_24_286
*1984 FILLER_24_289
*1985 FILLER_24_292
*1986 FILLER_24_295
*1987 FILLER_24_298
*1988 FILLER_24_3
*1989 FILLER_24_301
*1990 FILLER_24_304
*1991 FILLER_24_309
*1992 FILLER_24_312
*1993 FILLER_24_315
*1994 FILLER_24_318
*1995 FILLER_24_321
*1996 FILLER_24_324
*1997 FILLER_24_327
*1998 FILLER_24_330
*1999 FILLER_24_333
*2000 FILLER_24_51
*2001 FILLER_24_54
*2002 FILLER_24_57
*2003 FILLER_24_6
*2004 FILLER_24_60
*2005 FILLER_24_63
*2006 FILLER_24_66
*2007 FILLER_24_69
*2008 FILLER_24_72
*2009 FILLER_24_81
*2010 FILLER_24_85
*2011 FILLER_24_88
*2012 FILLER_24_9
*2013 FILLER_24_91
*2014 FILLER_24_94
*2015 FILLER_24_97
*2016 FILLER_25_102
*2017 FILLER_25_113
*2018 FILLER_25_12
*2019 FILLER_25_120
*2020 FILLER_25_129
*2021 FILLER_25_132
*2022 FILLER_25_135
*2023 FILLER_25_138
*2024 FILLER_25_141
*2025 FILLER_25_144
*2026 FILLER_25_147
*2027 FILLER_25_15
*2028 FILLER_25_162
*2029 FILLER_25_165
*2030 FILLER_25_169
*2031 FILLER_25_172
*2032 FILLER_25_175
*2033 FILLER_25_178
*2034 FILLER_25_18
*2035 FILLER_25_188
*2036 FILLER_25_191
*2037 FILLER_25_194
*2038 FILLER_25_197
*2039 FILLER_25_200
*2040 FILLER_25_203
*2041 FILLER_25_206
*2042 FILLER_25_209
*2043 FILLER_25_21
*2044 FILLER_25_212
*2045 FILLER_25_215
*2046 FILLER_25_218
*2047 FILLER_25_221
*2048 FILLER_25_234
*2049 FILLER_25_237
*2050 FILLER_25_24
*2051 FILLER_25_240
*2052 FILLER_25_243
*2053 FILLER_25_246
*2054 FILLER_25_249
*2055 FILLER_25_252
*2056 FILLER_25_255
*2057 FILLER_25_258
*2058 FILLER_25_261
*2059 FILLER_25_264
*2060 FILLER_25_267
*2061 FILLER_25_270
*2062 FILLER_25_273
*2063 FILLER_25_276
*2064 FILLER_25_279
*2065 FILLER_25_281
*2066 FILLER_25_284
*2067 FILLER_25_287
*2068 FILLER_25_290
*2069 FILLER_25_293
*2070 FILLER_25_296
*2071 FILLER_25_299
*2072 FILLER_25_3
*2073 FILLER_25_314
*2074 FILLER_25_323
*2075 FILLER_25_326
*2076 FILLER_25_329
*2077 FILLER_25_332
*2078 FILLER_25_37
*2079 FILLER_25_40
*2080 FILLER_25_43
*2081 FILLER_25_46
*2082 FILLER_25_49
*2083 FILLER_25_57
*2084 FILLER_25_6
*2085 FILLER_25_60
*2086 FILLER_25_63
*2087 FILLER_25_66
*2088 FILLER_25_69
*2089 FILLER_25_72
*2090 FILLER_25_75
*2091 FILLER_25_78
*2092 FILLER_25_81
*2093 FILLER_25_84
*2094 FILLER_25_87
*2095 FILLER_25_9
*2096 FILLER_25_90
*2097 FILLER_25_93
*2098 FILLER_25_96
*2099 FILLER_25_99
*2100 FILLER_26_100
*2101 FILLER_26_110
*2102 FILLER_26_113
*2103 FILLER_26_119
*2104 FILLER_26_12
*2105 FILLER_26_122
*2106 FILLER_26_125
*2107 FILLER_26_128
*2108 FILLER_26_131
*2109 FILLER_26_134
*2110 FILLER_26_137
*2111 FILLER_26_141
*2112 FILLER_26_15
*2113 FILLER_26_151
*2114 FILLER_26_154
*2115 FILLER_26_157
*2116 FILLER_26_160
*2117 FILLER_26_163
*2118 FILLER_26_166
*2119 FILLER_26_169
*2120 FILLER_26_172
*2121 FILLER_26_175
*2122 FILLER_26_18
*2123 FILLER_26_184
*2124 FILLER_26_187
*2125 FILLER_26_205
*2126 FILLER_26_208
*2127 FILLER_26_21
*2128 FILLER_26_211
*2129 FILLER_26_215
*2130 FILLER_26_218
*2131 FILLER_26_221
*2132 FILLER_26_224
*2133 FILLER_26_227
*2134 FILLER_26_230
*2135 FILLER_26_233
*2136 FILLER_26_236
*2137 FILLER_26_24
*2138 FILLER_26_253
*2139 FILLER_26_256
*2140 FILLER_26_259
*2141 FILLER_26_262
*2142 FILLER_26_265
*2143 FILLER_26_268
*2144 FILLER_26_27
*2145 FILLER_26_271
*2146 FILLER_26_29
*2147 FILLER_26_295
*2148 FILLER_26_298
*2149 FILLER_26_3
*2150 FILLER_26_301
*2151 FILLER_26_304
*2152 FILLER_26_307
*2153 FILLER_26_309
*2154 FILLER_26_312
*2155 FILLER_26_315
*2156 FILLER_26_318
*2157 FILLER_26_32
*2158 FILLER_26_321
*2159 FILLER_26_324
*2160 FILLER_26_327
*2161 FILLER_26_330
*2162 FILLER_26_333
*2163 FILLER_26_35
*2164 FILLER_26_38
*2165 FILLER_26_41
*2166 FILLER_26_44
*2167 FILLER_26_47
*2168 FILLER_26_50
*2169 FILLER_26_53
*2170 FILLER_26_56
*2171 FILLER_26_59
*2172 FILLER_26_6
*2173 FILLER_26_62
*2174 FILLER_26_74
*2175 FILLER_26_82
*2176 FILLER_26_85
*2177 FILLER_26_88
*2178 FILLER_26_9
*2179 FILLER_26_91
*2180 FILLER_26_94
*2181 FILLER_26_97
*2182 FILLER_27_107
*2183 FILLER_27_110
*2184 FILLER_27_113
*2185 FILLER_27_116
*2186 FILLER_27_119
*2187 FILLER_27_12
*2188 FILLER_27_122
*2189 FILLER_27_125
*2190 FILLER_27_128
*2191 FILLER_27_131
*2192 FILLER_27_134
*2193 FILLER_27_137
*2194 FILLER_27_140
*2195 FILLER_27_143
*2196 FILLER_27_146
*2197 FILLER_27_149
*2198 FILLER_27_15
*2199 FILLER_27_152
*2200 FILLER_27_155
*2201 FILLER_27_158
*2202 FILLER_27_161
*2203 FILLER_27_164
*2204 FILLER_27_167
*2205 FILLER_27_169
*2206 FILLER_27_172
*2207 FILLER_27_175
*2208 FILLER_27_178
*2209 FILLER_27_18
*2210 FILLER_27_181
*2211 FILLER_27_184
*2212 FILLER_27_187
*2213 FILLER_27_190
*2214 FILLER_27_193
*2215 FILLER_27_196
*2216 FILLER_27_199
*2217 FILLER_27_202
*2218 FILLER_27_21
*2219 FILLER_27_218
*2220 FILLER_27_221
*2221 FILLER_27_225
*2222 FILLER_27_228
*2223 FILLER_27_231
*2224 FILLER_27_234
*2225 FILLER_27_237
*2226 FILLER_27_24
*2227 FILLER_27_240
*2228 FILLER_27_243
*2229 FILLER_27_246
*2230 FILLER_27_249
*2231 FILLER_27_252
*2232 FILLER_27_255
*2233 FILLER_27_258
*2234 FILLER_27_261
*2235 FILLER_27_264
*2236 FILLER_27_267
*2237 FILLER_27_27
*2238 FILLER_27_270
*2239 FILLER_27_273
*2240 FILLER_27_276
*2241 FILLER_27_279
*2242 FILLER_27_281
*2243 FILLER_27_3
*2244 FILLER_27_30
*2245 FILLER_27_310
*2246 FILLER_27_313
*2247 FILLER_27_316
*2248 FILLER_27_321
*2249 FILLER_27_324
*2250 FILLER_27_327
*2251 FILLER_27_33
*2252 FILLER_27_330
*2253 FILLER_27_333
*2254 FILLER_27_36
*2255 FILLER_27_39
*2256 FILLER_27_42
*2257 FILLER_27_45
*2258 FILLER_27_48
*2259 FILLER_27_51
*2260 FILLER_27_54
*2261 FILLER_27_57
*2262 FILLER_27_6
*2263 FILLER_27_60
*2264 FILLER_27_63
*2265 FILLER_27_66
*2266 FILLER_27_69
*2267 FILLER_27_72
*2268 FILLER_27_75
*2269 FILLER_27_78
*2270 FILLER_27_81
*2271 FILLER_27_84
*2272 FILLER_27_87
*2273 FILLER_27_9
*2274 FILLER_27_90
*2275 FILLER_27_93
*2276 FILLER_27_96
*2277 FILLER_27_99
*2278 FILLER_28_100
*2279 FILLER_28_105
*2280 FILLER_28_108
*2281 FILLER_28_111
*2282 FILLER_28_114
*2283 FILLER_28_117
*2284 FILLER_28_12
*2285 FILLER_28_120
*2286 FILLER_28_126
*2287 FILLER_28_129
*2288 FILLER_28_132
*2289 FILLER_28_135
*2290 FILLER_28_138
*2291 FILLER_28_149
*2292 FILLER_28_15
*2293 FILLER_28_152
*2294 FILLER_28_168
*2295 FILLER_28_171
*2296 FILLER_28_174
*2297 FILLER_28_177
*2298 FILLER_28_18
*2299 FILLER_28_180
*2300 FILLER_28_183
*2301 FILLER_28_186
*2302 FILLER_28_189
*2303 FILLER_28_192
*2304 FILLER_28_195
*2305 FILLER_28_197
*2306 FILLER_28_200
*2307 FILLER_28_203
*2308 FILLER_28_206
*2309 FILLER_28_209
*2310 FILLER_28_21
*2311 FILLER_28_212
*2312 FILLER_28_218
*2313 FILLER_28_221
*2314 FILLER_28_224
*2315 FILLER_28_227
*2316 FILLER_28_230
*2317 FILLER_28_233
*2318 FILLER_28_236
*2319 FILLER_28_239
*2320 FILLER_28_24
*2321 FILLER_28_242
*2322 FILLER_28_245
*2323 FILLER_28_248
*2324 FILLER_28_251
*2325 FILLER_28_253
*2326 FILLER_28_256
*2327 FILLER_28_259
*2328 FILLER_28_27
*2329 FILLER_28_282
*2330 FILLER_28_285
*2331 FILLER_28_288
*2332 FILLER_28_29
*2333 FILLER_28_291
*2334 FILLER_28_294
*2335 FILLER_28_297
*2336 FILLER_28_3
*2337 FILLER_28_300
*2338 FILLER_28_303
*2339 FILLER_28_306
*2340 FILLER_28_32
*2341 FILLER_28_332
*2342 FILLER_28_35
*2343 FILLER_28_51
*2344 FILLER_28_54
*2345 FILLER_28_57
*2346 FILLER_28_6
*2347 FILLER_28_60
*2348 FILLER_28_63
*2349 FILLER_28_66
*2350 FILLER_28_69
*2351 FILLER_28_72
*2352 FILLER_28_81
*2353 FILLER_28_85
*2354 FILLER_28_88
*2355 FILLER_28_9
*2356 FILLER_28_91
*2357 FILLER_28_94
*2358 FILLER_28_97
*2359 FILLER_29_109
*2360 FILLER_29_119
*2361 FILLER_29_128
*2362 FILLER_29_131
*2363 FILLER_29_134
*2364 FILLER_29_137
*2365 FILLER_29_140
*2366 FILLER_29_143
*2367 FILLER_29_146
*2368 FILLER_29_149
*2369 FILLER_29_152
*2370 FILLER_29_155
*2371 FILLER_29_158
*2372 FILLER_29_161
*2373 FILLER_29_164
*2374 FILLER_29_167
*2375 FILLER_29_169
*2376 FILLER_29_172
*2377 FILLER_29_175
*2378 FILLER_29_178
*2379 FILLER_29_181
*2380 FILLER_29_184
*2381 FILLER_29_187
*2382 FILLER_29_190
*2383 FILLER_29_193
*2384 FILLER_29_196
*2385 FILLER_29_199
*2386 FILLER_29_202
*2387 FILLER_29_205
*2388 FILLER_29_208
*2389 FILLER_29_211
*2390 FILLER_29_217
*2391 FILLER_29_22
*2392 FILLER_29_220
*2393 FILLER_29_223
*2394 FILLER_29_225
*2395 FILLER_29_228
*2396 FILLER_29_231
*2397 FILLER_29_237
*2398 FILLER_29_240
*2399 FILLER_29_243
*2400 FILLER_29_246
*2401 FILLER_29_249
*2402 FILLER_29_25
*2403 FILLER_29_252
*2404 FILLER_29_255
*2405 FILLER_29_258
*2406 FILLER_29_261
*2407 FILLER_29_272
*2408 FILLER_29_275
*2409 FILLER_29_278
*2410 FILLER_29_281
*2411 FILLER_29_284
*2412 FILLER_29_287
*2413 FILLER_29_290
*2414 FILLER_29_293
*2415 FILLER_29_296
*2416 FILLER_29_299
*2417 FILLER_29_3
*2418 FILLER_29_302
*2419 FILLER_29_305
*2420 FILLER_29_308
*2421 FILLER_29_31
*2422 FILLER_29_311
*2423 FILLER_29_314
*2424 FILLER_29_317
*2425 FILLER_29_326
*2426 FILLER_29_329
*2427 FILLER_29_332
*2428 FILLER_29_34
*2429 FILLER_29_54
*2430 FILLER_29_57
*2431 FILLER_29_6
*2432 FILLER_29_60
*2433 FILLER_29_63
*2434 FILLER_29_66
*2435 FILLER_29_69
*2436 FILLER_29_72
*2437 FILLER_29_75
*2438 FILLER_29_78
*2439 FILLER_29_81
*2440 FILLER_29_84
*2441 FILLER_29_87
*2442 FILLER_29_9
*2443 FILLER_29_90
*2444 FILLER_29_93
*2445 FILLER_29_96
*2446 FILLER_2_100
*2447 FILLER_2_103
*2448 FILLER_2_106
*2449 FILLER_2_109
*2450 FILLER_2_112
*2451 FILLER_2_115
*2452 FILLER_2_118
*2453 FILLER_2_12
*2454 FILLER_2_121
*2455 FILLER_2_124
*2456 FILLER_2_127
*2457 FILLER_2_130
*2458 FILLER_2_133
*2459 FILLER_2_136
*2460 FILLER_2_139
*2461 FILLER_2_141
*2462 FILLER_2_144
*2463 FILLER_2_147
*2464 FILLER_2_15
*2465 FILLER_2_150
*2466 FILLER_2_153
*2467 FILLER_2_156
*2468 FILLER_2_159
*2469 FILLER_2_162
*2470 FILLER_2_165
*2471 FILLER_2_168
*2472 FILLER_2_171
*2473 FILLER_2_174
*2474 FILLER_2_177
*2475 FILLER_2_18
*2476 FILLER_2_180
*2477 FILLER_2_183
*2478 FILLER_2_186
*2479 FILLER_2_189
*2480 FILLER_2_192
*2481 FILLER_2_195
*2482 FILLER_2_197
*2483 FILLER_2_200
*2484 FILLER_2_203
*2485 FILLER_2_206
*2486 FILLER_2_209
*2487 FILLER_2_21
*2488 FILLER_2_212
*2489 FILLER_2_215
*2490 FILLER_2_218
*2491 FILLER_2_221
*2492 FILLER_2_224
*2493 FILLER_2_227
*2494 FILLER_2_230
*2495 FILLER_2_233
*2496 FILLER_2_236
*2497 FILLER_2_239
*2498 FILLER_2_24
*2499 FILLER_2_242
*2500 FILLER_2_245
*2501 FILLER_2_248
*2502 FILLER_2_251
*2503 FILLER_2_253
*2504 FILLER_2_256
*2505 FILLER_2_259
*2506 FILLER_2_262
*2507 FILLER_2_265
*2508 FILLER_2_268
*2509 FILLER_2_27
*2510 FILLER_2_271
*2511 FILLER_2_274
*2512 FILLER_2_277
*2513 FILLER_2_280
*2514 FILLER_2_283
*2515 FILLER_2_286
*2516 FILLER_2_289
*2517 FILLER_2_29
*2518 FILLER_2_292
*2519 FILLER_2_295
*2520 FILLER_2_298
*2521 FILLER_2_3
*2522 FILLER_2_301
*2523 FILLER_2_304
*2524 FILLER_2_307
*2525 FILLER_2_309
*2526 FILLER_2_312
*2527 FILLER_2_315
*2528 FILLER_2_318
*2529 FILLER_2_32
*2530 FILLER_2_321
*2531 FILLER_2_324
*2532 FILLER_2_327
*2533 FILLER_2_330
*2534 FILLER_2_333
*2535 FILLER_2_35
*2536 FILLER_2_38
*2537 FILLER_2_41
*2538 FILLER_2_44
*2539 FILLER_2_47
*2540 FILLER_2_50
*2541 FILLER_2_53
*2542 FILLER_2_56
*2543 FILLER_2_59
*2544 FILLER_2_6
*2545 FILLER_2_62
*2546 FILLER_2_65
*2547 FILLER_2_68
*2548 FILLER_2_71
*2549 FILLER_2_74
*2550 FILLER_2_77
*2551 FILLER_2_80
*2552 FILLER_2_83
*2553 FILLER_2_85
*2554 FILLER_2_88
*2555 FILLER_2_9
*2556 FILLER_2_91
*2557 FILLER_2_94
*2558 FILLER_2_97
*2559 FILLER_30_103
*2560 FILLER_30_106
*2561 FILLER_30_109
*2562 FILLER_30_112
*2563 FILLER_30_115
*2564 FILLER_30_12
*2565 FILLER_30_120
*2566 FILLER_30_123
*2567 FILLER_30_126
*2568 FILLER_30_129
*2569 FILLER_30_132
*2570 FILLER_30_135
*2571 FILLER_30_138
*2572 FILLER_30_141
*2573 FILLER_30_144
*2574 FILLER_30_147
*2575 FILLER_30_15
*2576 FILLER_30_150
*2577 FILLER_30_153
*2578 FILLER_30_171
*2579 FILLER_30_174
*2580 FILLER_30_177
*2581 FILLER_30_18
*2582 FILLER_30_180
*2583 FILLER_30_183
*2584 FILLER_30_186
*2585 FILLER_30_197
*2586 FILLER_30_202
*2587 FILLER_30_205
*2588 FILLER_30_208
*2589 FILLER_30_21
*2590 FILLER_30_211
*2591 FILLER_30_216
*2592 FILLER_30_219
*2593 FILLER_30_222
*2594 FILLER_30_225
*2595 FILLER_30_228
*2596 FILLER_30_231
*2597 FILLER_30_234
*2598 FILLER_30_24
*2599 FILLER_30_246
*2600 FILLER_30_249
*2601 FILLER_30_253
*2602 FILLER_30_256
*2603 FILLER_30_259
*2604 FILLER_30_262
*2605 FILLER_30_265
*2606 FILLER_30_268
*2607 FILLER_30_27
*2608 FILLER_30_271
*2609 FILLER_30_29
*2610 FILLER_30_293
*2611 FILLER_30_296
*2612 FILLER_30_299
*2613 FILLER_30_3
*2614 FILLER_30_302
*2615 FILLER_30_305
*2616 FILLER_30_309
*2617 FILLER_30_312
*2618 FILLER_30_315
*2619 FILLER_30_318
*2620 FILLER_30_32
*2621 FILLER_30_321
*2622 FILLER_30_324
*2623 FILLER_30_327
*2624 FILLER_30_330
*2625 FILLER_30_333
*2626 FILLER_30_35
*2627 FILLER_30_38
*2628 FILLER_30_41
*2629 FILLER_30_49
*2630 FILLER_30_52
*2631 FILLER_30_55
*2632 FILLER_30_58
*2633 FILLER_30_6
*2634 FILLER_30_61
*2635 FILLER_30_64
*2636 FILLER_30_67
*2637 FILLER_30_70
*2638 FILLER_30_79
*2639 FILLER_30_82
*2640 FILLER_30_85
*2641 FILLER_30_88
*2642 FILLER_30_9
*2643 FILLER_30_91
*2644 FILLER_30_94
*2645 FILLER_30_97
*2646 FILLER_31_102
*2647 FILLER_31_105
*2648 FILLER_31_108
*2649 FILLER_31_111
*2650 FILLER_31_113
*2651 FILLER_31_117
*2652 FILLER_31_12
*2653 FILLER_31_120
*2654 FILLER_31_133
*2655 FILLER_31_136
*2656 FILLER_31_139
*2657 FILLER_31_142
*2658 FILLER_31_145
*2659 FILLER_31_148
*2660 FILLER_31_15
*2661 FILLER_31_151
*2662 FILLER_31_164
*2663 FILLER_31_167
*2664 FILLER_31_169
*2665 FILLER_31_172
*2666 FILLER_31_175
*2667 FILLER_31_178
*2668 FILLER_31_18
*2669 FILLER_31_184
*2670 FILLER_31_187
*2671 FILLER_31_190
*2672 FILLER_31_193
*2673 FILLER_31_21
*2674 FILLER_31_213
*2675 FILLER_31_216
*2676 FILLER_31_219
*2677 FILLER_31_222
*2678 FILLER_31_225
*2679 FILLER_31_228
*2680 FILLER_31_231
*2681 FILLER_31_24
*2682 FILLER_31_242
*2683 FILLER_31_245
*2684 FILLER_31_248
*2685 FILLER_31_251
*2686 FILLER_31_254
*2687 FILLER_31_257
*2688 FILLER_31_260
*2689 FILLER_31_263
*2690 FILLER_31_266
*2691 FILLER_31_269
*2692 FILLER_31_27
*2693 FILLER_31_275
*2694 FILLER_31_278
*2695 FILLER_31_281
*2696 FILLER_31_284
*2697 FILLER_31_287
*2698 FILLER_31_290
*2699 FILLER_31_293
*2700 FILLER_31_296
*2701 FILLER_31_299
*2702 FILLER_31_3
*2703 FILLER_31_30
*2704 FILLER_31_310
*2705 FILLER_31_313
*2706 FILLER_31_316
*2707 FILLER_31_321
*2708 FILLER_31_324
*2709 FILLER_31_327
*2710 FILLER_31_33
*2711 FILLER_31_330
*2712 FILLER_31_333
*2713 FILLER_31_36
*2714 FILLER_31_39
*2715 FILLER_31_42
*2716 FILLER_31_45
*2717 FILLER_31_48
*2718 FILLER_31_51
*2719 FILLER_31_54
*2720 FILLER_31_57
*2721 FILLER_31_6
*2722 FILLER_31_60
*2723 FILLER_31_63
*2724 FILLER_31_66
*2725 FILLER_31_69
*2726 FILLER_31_72
*2727 FILLER_31_85
*2728 FILLER_31_88
*2729 FILLER_31_9
*2730 FILLER_31_99
*2731 FILLER_32_101
*2732 FILLER_32_104
*2733 FILLER_32_107
*2734 FILLER_32_110
*2735 FILLER_32_113
*2736 FILLER_32_116
*2737 FILLER_32_119
*2738 FILLER_32_12
*2739 FILLER_32_122
*2740 FILLER_32_125
*2741 FILLER_32_128
*2742 FILLER_32_131
*2743 FILLER_32_134
*2744 FILLER_32_137
*2745 FILLER_32_141
*2746 FILLER_32_144
*2747 FILLER_32_147
*2748 FILLER_32_15
*2749 FILLER_32_150
*2750 FILLER_32_153
*2751 FILLER_32_158
*2752 FILLER_32_161
*2753 FILLER_32_164
*2754 FILLER_32_167
*2755 FILLER_32_170
*2756 FILLER_32_173
*2757 FILLER_32_176
*2758 FILLER_32_179
*2759 FILLER_32_18
*2760 FILLER_32_182
*2761 FILLER_32_185
*2762 FILLER_32_191
*2763 FILLER_32_194
*2764 FILLER_32_197
*2765 FILLER_32_200
*2766 FILLER_32_203
*2767 FILLER_32_206
*2768 FILLER_32_209
*2769 FILLER_32_21
*2770 FILLER_32_212
*2771 FILLER_32_215
*2772 FILLER_32_218
*2773 FILLER_32_221
*2774 FILLER_32_224
*2775 FILLER_32_227
*2776 FILLER_32_24
*2777 FILLER_32_249
*2778 FILLER_32_253
*2779 FILLER_32_256
*2780 FILLER_32_259
*2781 FILLER_32_262
*2782 FILLER_32_268
*2783 FILLER_32_27
*2784 FILLER_32_271
*2785 FILLER_32_29
*2786 FILLER_32_294
*2787 FILLER_32_297
*2788 FILLER_32_3
*2789 FILLER_32_300
*2790 FILLER_32_304
*2791 FILLER_32_307
*2792 FILLER_32_32
*2793 FILLER_32_332
*2794 FILLER_32_43
*2795 FILLER_32_46
*2796 FILLER_32_49
*2797 FILLER_32_52
*2798 FILLER_32_55
*2799 FILLER_32_58
*2800 FILLER_32_6
*2801 FILLER_32_61
*2802 FILLER_32_64
*2803 FILLER_32_67
*2804 FILLER_32_70
*2805 FILLER_32_73
*2806 FILLER_32_76
*2807 FILLER_32_79
*2808 FILLER_32_82
*2809 FILLER_32_85
*2810 FILLER_32_88
*2811 FILLER_32_9
*2812 FILLER_32_91
*2813 FILLER_33_100
*2814 FILLER_33_103
*2815 FILLER_33_106
*2816 FILLER_33_109
*2817 FILLER_33_113
*2818 FILLER_33_12
*2819 FILLER_33_121
*2820 FILLER_33_124
*2821 FILLER_33_127
*2822 FILLER_33_130
*2823 FILLER_33_133
*2824 FILLER_33_136
*2825 FILLER_33_139
*2826 FILLER_33_142
*2827 FILLER_33_145
*2828 FILLER_33_148
*2829 FILLER_33_15
*2830 FILLER_33_151
*2831 FILLER_33_162
*2832 FILLER_33_165
*2833 FILLER_33_169
*2834 FILLER_33_172
*2835 FILLER_33_175
*2836 FILLER_33_178
*2837 FILLER_33_18
*2838 FILLER_33_181
*2839 FILLER_33_184
*2840 FILLER_33_196
*2841 FILLER_33_199
*2842 FILLER_33_202
*2843 FILLER_33_205
*2844 FILLER_33_208
*2845 FILLER_33_21
*2846 FILLER_33_211
*2847 FILLER_33_214
*2848 FILLER_33_217
*2849 FILLER_33_220
*2850 FILLER_33_223
*2851 FILLER_33_225
*2852 FILLER_33_228
*2853 FILLER_33_231
*2854 FILLER_33_234
*2855 FILLER_33_237
*2856 FILLER_33_24
*2857 FILLER_33_240
*2858 FILLER_33_243
*2859 FILLER_33_246
*2860 FILLER_33_249
*2861 FILLER_33_252
*2862 FILLER_33_255
*2863 FILLER_33_258
*2864 FILLER_33_261
*2865 FILLER_33_264
*2866 FILLER_33_267
*2867 FILLER_33_27
*2868 FILLER_33_270
*2869 FILLER_33_281
*2870 FILLER_33_284
*2871 FILLER_33_287
*2872 FILLER_33_290
*2873 FILLER_33_293
*2874 FILLER_33_296
*2875 FILLER_33_299
*2876 FILLER_33_3
*2877 FILLER_33_302
*2878 FILLER_33_305
*2879 FILLER_33_308
*2880 FILLER_33_311
*2881 FILLER_33_314
*2882 FILLER_33_317
*2883 FILLER_33_320
*2884 FILLER_33_323
*2885 FILLER_33_326
*2886 FILLER_33_329
*2887 FILLER_33_332
*2888 FILLER_33_37
*2889 FILLER_33_40
*2890 FILLER_33_54
*2891 FILLER_33_57
*2892 FILLER_33_6
*2893 FILLER_33_60
*2894 FILLER_33_63
*2895 FILLER_33_66
*2896 FILLER_33_69
*2897 FILLER_33_72
*2898 FILLER_33_75
*2899 FILLER_33_85
*2900 FILLER_33_88
*2901 FILLER_33_9
*2902 FILLER_33_91
*2903 FILLER_33_94
*2904 FILLER_33_97
*2905 FILLER_34_100
*2906 FILLER_34_103
*2907 FILLER_34_106
*2908 FILLER_34_109
*2909 FILLER_34_12
*2910 FILLER_34_123
*2911 FILLER_34_126
*2912 FILLER_34_129
*2913 FILLER_34_132
*2914 FILLER_34_135
*2915 FILLER_34_138
*2916 FILLER_34_141
*2917 FILLER_34_144
*2918 FILLER_34_147
*2919 FILLER_34_15
*2920 FILLER_34_150
*2921 FILLER_34_153
*2922 FILLER_34_156
*2923 FILLER_34_159
*2924 FILLER_34_162
*2925 FILLER_34_165
*2926 FILLER_34_168
*2927 FILLER_34_171
*2928 FILLER_34_174
*2929 FILLER_34_177
*2930 FILLER_34_18
*2931 FILLER_34_180
*2932 FILLER_34_183
*2933 FILLER_34_186
*2934 FILLER_34_189
*2935 FILLER_34_192
*2936 FILLER_34_195
*2937 FILLER_34_197
*2938 FILLER_34_200
*2939 FILLER_34_203
*2940 FILLER_34_206
*2941 FILLER_34_209
*2942 FILLER_34_21
*2943 FILLER_34_212
*2944 FILLER_34_215
*2945 FILLER_34_218
*2946 FILLER_34_221
*2947 FILLER_34_224
*2948 FILLER_34_227
*2949 FILLER_34_230
*2950 FILLER_34_233
*2951 FILLER_34_236
*2952 FILLER_34_239
*2953 FILLER_34_24
*2954 FILLER_34_242
*2955 FILLER_34_245
*2956 FILLER_34_248
*2957 FILLER_34_251
*2958 FILLER_34_253
*2959 FILLER_34_256
*2960 FILLER_34_259
*2961 FILLER_34_262
*2962 FILLER_34_265
*2963 FILLER_34_268
*2964 FILLER_34_27
*2965 FILLER_34_271
*2966 FILLER_34_29
*2967 FILLER_34_299
*2968 FILLER_34_3
*2969 FILLER_34_302
*2970 FILLER_34_305
*2971 FILLER_34_309
*2972 FILLER_34_312
*2973 FILLER_34_315
*2974 FILLER_34_318
*2975 FILLER_34_32
*2976 FILLER_34_321
*2977 FILLER_34_324
*2978 FILLER_34_327
*2979 FILLER_34_330
*2980 FILLER_34_333
*2981 FILLER_34_35
*2982 FILLER_34_38
*2983 FILLER_34_41
*2984 FILLER_34_44
*2985 FILLER_34_47
*2986 FILLER_34_50
*2987 FILLER_34_53
*2988 FILLER_34_56
*2989 FILLER_34_59
*2990 FILLER_34_6
*2991 FILLER_34_62
*2992 FILLER_34_65
*2993 FILLER_34_68
*2994 FILLER_34_71
*2995 FILLER_34_74
*2996 FILLER_34_77
*2997 FILLER_34_80
*2998 FILLER_34_83
*2999 FILLER_34_85
*3000 FILLER_34_88
*3001 FILLER_34_9
*3002 FILLER_34_91
*3003 FILLER_34_94
*3004 FILLER_34_97
*3005 FILLER_35_102
*3006 FILLER_35_105
*3007 FILLER_35_108
*3008 FILLER_35_111
*3009 FILLER_35_113
*3010 FILLER_35_116
*3011 FILLER_35_119
*3012 FILLER_35_12
*3013 FILLER_35_122
*3014 FILLER_35_125
*3015 FILLER_35_128
*3016 FILLER_35_131
*3017 FILLER_35_134
*3018 FILLER_35_137
*3019 FILLER_35_140
*3020 FILLER_35_143
*3021 FILLER_35_146
*3022 FILLER_35_149
*3023 FILLER_35_15
*3024 FILLER_35_152
*3025 FILLER_35_155
*3026 FILLER_35_166
*3027 FILLER_35_169
*3028 FILLER_35_172
*3029 FILLER_35_175
*3030 FILLER_35_178
*3031 FILLER_35_18
*3032 FILLER_35_181
*3033 FILLER_35_184
*3034 FILLER_35_187
*3035 FILLER_35_190
*3036 FILLER_35_193
*3037 FILLER_35_196
*3038 FILLER_35_199
*3039 FILLER_35_202
*3040 FILLER_35_205
*3041 FILLER_35_21
*3042 FILLER_35_219
*3043 FILLER_35_222
*3044 FILLER_35_225
*3045 FILLER_35_228
*3046 FILLER_35_231
*3047 FILLER_35_234
*3048 FILLER_35_237
*3049 FILLER_35_24
*3050 FILLER_35_240
*3051 FILLER_35_243
*3052 FILLER_35_252
*3053 FILLER_35_255
*3054 FILLER_35_258
*3055 FILLER_35_261
*3056 FILLER_35_264
*3057 FILLER_35_267
*3058 FILLER_35_27
*3059 FILLER_35_270
*3060 FILLER_35_273
*3061 FILLER_35_276
*3062 FILLER_35_284
*3063 FILLER_35_287
*3064 FILLER_35_297
*3065 FILLER_35_3
*3066 FILLER_35_30
*3067 FILLER_35_300
*3068 FILLER_35_303
*3069 FILLER_35_306
*3070 FILLER_35_309
*3071 FILLER_35_312
*3072 FILLER_35_315
*3073 FILLER_35_318
*3074 FILLER_35_321
*3075 FILLER_35_324
*3076 FILLER_35_327
*3077 FILLER_35_33
*3078 FILLER_35_330
*3079 FILLER_35_333
*3080 FILLER_35_36
*3081 FILLER_35_39
*3082 FILLER_35_42
*3083 FILLER_35_45
*3084 FILLER_35_48
*3085 FILLER_35_51
*3086 FILLER_35_54
*3087 FILLER_35_57
*3088 FILLER_35_6
*3089 FILLER_35_60
*3090 FILLER_35_63
*3091 FILLER_35_66
*3092 FILLER_35_69
*3093 FILLER_35_78
*3094 FILLER_35_81
*3095 FILLER_35_84
*3096 FILLER_35_87
*3097 FILLER_35_9
*3098 FILLER_35_90
*3099 FILLER_35_93
*3100 FILLER_35_96
*3101 FILLER_35_99
*3102 FILLER_36_100
*3103 FILLER_36_103
*3104 FILLER_36_106
*3105 FILLER_36_116
*3106 FILLER_36_119
*3107 FILLER_36_12
*3108 FILLER_36_122
*3109 FILLER_36_125
*3110 FILLER_36_128
*3111 FILLER_36_131
*3112 FILLER_36_134
*3113 FILLER_36_137
*3114 FILLER_36_141
*3115 FILLER_36_15
*3116 FILLER_36_152
*3117 FILLER_36_155
*3118 FILLER_36_164
*3119 FILLER_36_167
*3120 FILLER_36_170
*3121 FILLER_36_173
*3122 FILLER_36_176
*3123 FILLER_36_179
*3124 FILLER_36_18
*3125 FILLER_36_182
*3126 FILLER_36_185
*3127 FILLER_36_188
*3128 FILLER_36_202
*3129 FILLER_36_205
*3130 FILLER_36_21
*3131 FILLER_36_217
*3132 FILLER_36_220
*3133 FILLER_36_223
*3134 FILLER_36_226
*3135 FILLER_36_236
*3136 FILLER_36_239
*3137 FILLER_36_24
*3138 FILLER_36_242
*3139 FILLER_36_245
*3140 FILLER_36_248
*3141 FILLER_36_251
*3142 FILLER_36_253
*3143 FILLER_36_256
*3144 FILLER_36_259
*3145 FILLER_36_262
*3146 FILLER_36_265
*3147 FILLER_36_268
*3148 FILLER_36_27
*3149 FILLER_36_29
*3150 FILLER_36_290
*3151 FILLER_36_293
*3152 FILLER_36_296
*3153 FILLER_36_299
*3154 FILLER_36_3
*3155 FILLER_36_32
*3156 FILLER_36_332
*3157 FILLER_36_35
*3158 FILLER_36_38
*3159 FILLER_36_41
*3160 FILLER_36_44
*3161 FILLER_36_47
*3162 FILLER_36_50
*3163 FILLER_36_53
*3164 FILLER_36_56
*3165 FILLER_36_59
*3166 FILLER_36_6
*3167 FILLER_36_62
*3168 FILLER_36_65
*3169 FILLER_36_68
*3170 FILLER_36_71
*3171 FILLER_36_74
*3172 FILLER_36_77
*3173 FILLER_36_80
*3174 FILLER_36_83
*3175 FILLER_36_85
*3176 FILLER_36_88
*3177 FILLER_36_9
*3178 FILLER_36_91
*3179 FILLER_36_94
*3180 FILLER_36_97
*3181 FILLER_37_102
*3182 FILLER_37_105
*3183 FILLER_37_108
*3184 FILLER_37_111
*3185 FILLER_37_113
*3186 FILLER_37_116
*3187 FILLER_37_119
*3188 FILLER_37_12
*3189 FILLER_37_122
*3190 FILLER_37_125
*3191 FILLER_37_128
*3192 FILLER_37_131
*3193 FILLER_37_134
*3194 FILLER_37_137
*3195 FILLER_37_140
*3196 FILLER_37_15
*3197 FILLER_37_152
*3198 FILLER_37_155
*3199 FILLER_37_158
*3200 FILLER_37_161
*3201 FILLER_37_164
*3202 FILLER_37_167
*3203 FILLER_37_169
*3204 FILLER_37_172
*3205 FILLER_37_175
*3206 FILLER_37_178
*3207 FILLER_37_18
*3208 FILLER_37_181
*3209 FILLER_37_184
*3210 FILLER_37_187
*3211 FILLER_37_190
*3212 FILLER_37_202
*3213 FILLER_37_205
*3214 FILLER_37_208
*3215 FILLER_37_21
*3216 FILLER_37_211
*3217 FILLER_37_214
*3218 FILLER_37_217
*3219 FILLER_37_220
*3220 FILLER_37_223
*3221 FILLER_37_225
*3222 FILLER_37_228
*3223 FILLER_37_231
*3224 FILLER_37_24
*3225 FILLER_37_259
*3226 FILLER_37_262
*3227 FILLER_37_265
*3228 FILLER_37_268
*3229 FILLER_37_27
*3230 FILLER_37_271
*3231 FILLER_37_274
*3232 FILLER_37_277
*3233 FILLER_37_285
*3234 FILLER_37_294
*3235 FILLER_37_297
*3236 FILLER_37_3
*3237 FILLER_37_30
*3238 FILLER_37_300
*3239 FILLER_37_303
*3240 FILLER_37_306
*3241 FILLER_37_309
*3242 FILLER_37_312
*3243 FILLER_37_325
*3244 FILLER_37_328
*3245 FILLER_37_33
*3246 FILLER_37_331
*3247 FILLER_37_334
*3248 FILLER_37_36
*3249 FILLER_37_39
*3250 FILLER_37_42
*3251 FILLER_37_45
*3252 FILLER_37_48
*3253 FILLER_37_51
*3254 FILLER_37_54
*3255 FILLER_37_57
*3256 FILLER_37_6
*3257 FILLER_37_60
*3258 FILLER_37_63
*3259 FILLER_37_66
*3260 FILLER_37_69
*3261 FILLER_37_72
*3262 FILLER_37_75
*3263 FILLER_37_78
*3264 FILLER_37_81
*3265 FILLER_37_84
*3266 FILLER_37_87
*3267 FILLER_37_9
*3268 FILLER_37_90
*3269 FILLER_37_93
*3270 FILLER_37_96
*3271 FILLER_37_99
*3272 FILLER_38_100
*3273 FILLER_38_106
*3274 FILLER_38_113
*3275 FILLER_38_118
*3276 FILLER_38_12
*3277 FILLER_38_124
*3278 FILLER_38_130
*3279 FILLER_38_136
*3280 FILLER_38_141
*3281 FILLER_38_144
*3282 FILLER_38_148
*3283 FILLER_38_15
*3284 FILLER_38_154
*3285 FILLER_38_160
*3286 FILLER_38_166
*3287 FILLER_38_172
*3288 FILLER_38_178
*3289 FILLER_38_18
*3290 FILLER_38_184
*3291 FILLER_38_190
*3292 FILLER_38_197
*3293 FILLER_38_202
*3294 FILLER_38_205
*3295 FILLER_38_208
*3296 FILLER_38_21
*3297 FILLER_38_211
*3298 FILLER_38_214
*3299 FILLER_38_217
*3300 FILLER_38_220
*3301 FILLER_38_223
*3302 FILLER_38_225
*3303 FILLER_38_228
*3304 FILLER_38_231
*3305 FILLER_38_234
*3306 FILLER_38_24
*3307 FILLER_38_244
*3308 FILLER_38_247
*3309 FILLER_38_250
*3310 FILLER_38_256
*3311 FILLER_38_262
*3312 FILLER_38_268
*3313 FILLER_38_27
*3314 FILLER_38_274
*3315 FILLER_38_281
*3316 FILLER_38_286
*3317 FILLER_38_29
*3318 FILLER_38_292
*3319 FILLER_38_298
*3320 FILLER_38_3
*3321 FILLER_38_301
*3322 FILLER_38_304
*3323 FILLER_38_307
*3324 FILLER_38_309
*3325 FILLER_38_312
*3326 FILLER_38_315
*3327 FILLER_38_318
*3328 FILLER_38_32
*3329 FILLER_38_321
*3330 FILLER_38_324
*3331 FILLER_38_327
*3332 FILLER_38_330
*3333 FILLER_38_333
*3334 FILLER_38_35
*3335 FILLER_38_38
*3336 FILLER_38_41
*3337 FILLER_38_44
*3338 FILLER_38_47
*3339 FILLER_38_50
*3340 FILLER_38_53
*3341 FILLER_38_57
*3342 FILLER_38_6
*3343 FILLER_38_60
*3344 FILLER_38_64
*3345 FILLER_38_70
*3346 FILLER_38_76
*3347 FILLER_38_82
*3348 FILLER_38_88
*3349 FILLER_38_9
*3350 FILLER_38_94
*3351 FILLER_3_102
*3352 FILLER_3_105
*3353 FILLER_3_108
*3354 FILLER_3_111
*3355 FILLER_3_113
*3356 FILLER_3_116
*3357 FILLER_3_119
*3358 FILLER_3_12
*3359 FILLER_3_122
*3360 FILLER_3_125
*3361 FILLER_3_128
*3362 FILLER_3_131
*3363 FILLER_3_134
*3364 FILLER_3_137
*3365 FILLER_3_140
*3366 FILLER_3_143
*3367 FILLER_3_146
*3368 FILLER_3_149
*3369 FILLER_3_15
*3370 FILLER_3_152
*3371 FILLER_3_155
*3372 FILLER_3_158
*3373 FILLER_3_161
*3374 FILLER_3_164
*3375 FILLER_3_167
*3376 FILLER_3_169
*3377 FILLER_3_172
*3378 FILLER_3_175
*3379 FILLER_3_178
*3380 FILLER_3_18
*3381 FILLER_3_181
*3382 FILLER_3_184
*3383 FILLER_3_187
*3384 FILLER_3_190
*3385 FILLER_3_193
*3386 FILLER_3_196
*3387 FILLER_3_199
*3388 FILLER_3_202
*3389 FILLER_3_205
*3390 FILLER_3_208
*3391 FILLER_3_21
*3392 FILLER_3_211
*3393 FILLER_3_214
*3394 FILLER_3_217
*3395 FILLER_3_220
*3396 FILLER_3_223
*3397 FILLER_3_225
*3398 FILLER_3_228
*3399 FILLER_3_231
*3400 FILLER_3_234
*3401 FILLER_3_237
*3402 FILLER_3_24
*3403 FILLER_3_240
*3404 FILLER_3_243
*3405 FILLER_3_246
*3406 FILLER_3_249
*3407 FILLER_3_252
*3408 FILLER_3_255
*3409 FILLER_3_258
*3410 FILLER_3_261
*3411 FILLER_3_264
*3412 FILLER_3_267
*3413 FILLER_3_27
*3414 FILLER_3_270
*3415 FILLER_3_273
*3416 FILLER_3_276
*3417 FILLER_3_279
*3418 FILLER_3_281
*3419 FILLER_3_284
*3420 FILLER_3_287
*3421 FILLER_3_290
*3422 FILLER_3_293
*3423 FILLER_3_296
*3424 FILLER_3_299
*3425 FILLER_3_3
*3426 FILLER_3_30
*3427 FILLER_3_302
*3428 FILLER_3_305
*3429 FILLER_3_308
*3430 FILLER_3_311
*3431 FILLER_3_314
*3432 FILLER_3_317
*3433 FILLER_3_320
*3434 FILLER_3_323
*3435 FILLER_3_326
*3436 FILLER_3_329
*3437 FILLER_3_33
*3438 FILLER_3_332
*3439 FILLER_3_36
*3440 FILLER_3_39
*3441 FILLER_3_42
*3442 FILLER_3_45
*3443 FILLER_3_48
*3444 FILLER_3_51
*3445 FILLER_3_54
*3446 FILLER_3_57
*3447 FILLER_3_6
*3448 FILLER_3_60
*3449 FILLER_3_63
*3450 FILLER_3_66
*3451 FILLER_3_69
*3452 FILLER_3_72
*3453 FILLER_3_75
*3454 FILLER_3_78
*3455 FILLER_3_81
*3456 FILLER_3_84
*3457 FILLER_3_87
*3458 FILLER_3_9
*3459 FILLER_3_90
*3460 FILLER_3_93
*3461 FILLER_3_96
*3462 FILLER_3_99
*3463 FILLER_4_100
*3464 FILLER_4_103
*3465 FILLER_4_106
*3466 FILLER_4_109
*3467 FILLER_4_112
*3468 FILLER_4_115
*3469 FILLER_4_118
*3470 FILLER_4_12
*3471 FILLER_4_121
*3472 FILLER_4_124
*3473 FILLER_4_127
*3474 FILLER_4_130
*3475 FILLER_4_133
*3476 FILLER_4_136
*3477 FILLER_4_139
*3478 FILLER_4_141
*3479 FILLER_4_144
*3480 FILLER_4_147
*3481 FILLER_4_15
*3482 FILLER_4_150
*3483 FILLER_4_153
*3484 FILLER_4_156
*3485 FILLER_4_159
*3486 FILLER_4_162
*3487 FILLER_4_165
*3488 FILLER_4_168
*3489 FILLER_4_171
*3490 FILLER_4_174
*3491 FILLER_4_177
*3492 FILLER_4_18
*3493 FILLER_4_180
*3494 FILLER_4_183
*3495 FILLER_4_186
*3496 FILLER_4_189
*3497 FILLER_4_192
*3498 FILLER_4_195
*3499 FILLER_4_197
*3500 FILLER_4_200
*3501 FILLER_4_203
*3502 FILLER_4_206
*3503 FILLER_4_209
*3504 FILLER_4_21
*3505 FILLER_4_212
*3506 FILLER_4_215
*3507 FILLER_4_218
*3508 FILLER_4_221
*3509 FILLER_4_224
*3510 FILLER_4_227
*3511 FILLER_4_230
*3512 FILLER_4_233
*3513 FILLER_4_236
*3514 FILLER_4_239
*3515 FILLER_4_24
*3516 FILLER_4_242
*3517 FILLER_4_245
*3518 FILLER_4_248
*3519 FILLER_4_251
*3520 FILLER_4_253
*3521 FILLER_4_256
*3522 FILLER_4_259
*3523 FILLER_4_262
*3524 FILLER_4_265
*3525 FILLER_4_268
*3526 FILLER_4_27
*3527 FILLER_4_271
*3528 FILLER_4_274
*3529 FILLER_4_277
*3530 FILLER_4_280
*3531 FILLER_4_283
*3532 FILLER_4_286
*3533 FILLER_4_289
*3534 FILLER_4_29
*3535 FILLER_4_292
*3536 FILLER_4_295
*3537 FILLER_4_298
*3538 FILLER_4_3
*3539 FILLER_4_301
*3540 FILLER_4_304
*3541 FILLER_4_307
*3542 FILLER_4_309
*3543 FILLER_4_312
*3544 FILLER_4_315
*3545 FILLER_4_318
*3546 FILLER_4_32
*3547 FILLER_4_321
*3548 FILLER_4_324
*3549 FILLER_4_327
*3550 FILLER_4_330
*3551 FILLER_4_333
*3552 FILLER_4_35
*3553 FILLER_4_38
*3554 FILLER_4_41
*3555 FILLER_4_44
*3556 FILLER_4_47
*3557 FILLER_4_50
*3558 FILLER_4_53
*3559 FILLER_4_56
*3560 FILLER_4_59
*3561 FILLER_4_6
*3562 FILLER_4_62
*3563 FILLER_4_65
*3564 FILLER_4_68
*3565 FILLER_4_71
*3566 FILLER_4_74
*3567 FILLER_4_77
*3568 FILLER_4_80
*3569 FILLER_4_83
*3570 FILLER_4_85
*3571 FILLER_4_88
*3572 FILLER_4_9
*3573 FILLER_4_91
*3574 FILLER_4_94
*3575 FILLER_4_97
*3576 FILLER_5_102
*3577 FILLER_5_105
*3578 FILLER_5_108
*3579 FILLER_5_111
*3580 FILLER_5_113
*3581 FILLER_5_116
*3582 FILLER_5_119
*3583 FILLER_5_12
*3584 FILLER_5_122
*3585 FILLER_5_125
*3586 FILLER_5_128
*3587 FILLER_5_131
*3588 FILLER_5_134
*3589 FILLER_5_137
*3590 FILLER_5_140
*3591 FILLER_5_143
*3592 FILLER_5_146
*3593 FILLER_5_149
*3594 FILLER_5_15
*3595 FILLER_5_152
*3596 FILLER_5_155
*3597 FILLER_5_158
*3598 FILLER_5_161
*3599 FILLER_5_164
*3600 FILLER_5_167
*3601 FILLER_5_169
*3602 FILLER_5_172
*3603 FILLER_5_175
*3604 FILLER_5_178
*3605 FILLER_5_18
*3606 FILLER_5_181
*3607 FILLER_5_184
*3608 FILLER_5_187
*3609 FILLER_5_190
*3610 FILLER_5_193
*3611 FILLER_5_196
*3612 FILLER_5_199
*3613 FILLER_5_202
*3614 FILLER_5_205
*3615 FILLER_5_208
*3616 FILLER_5_21
*3617 FILLER_5_211
*3618 FILLER_5_214
*3619 FILLER_5_217
*3620 FILLER_5_220
*3621 FILLER_5_223
*3622 FILLER_5_225
*3623 FILLER_5_228
*3624 FILLER_5_231
*3625 FILLER_5_234
*3626 FILLER_5_237
*3627 FILLER_5_24
*3628 FILLER_5_240
*3629 FILLER_5_243
*3630 FILLER_5_246
*3631 FILLER_5_249
*3632 FILLER_5_252
*3633 FILLER_5_255
*3634 FILLER_5_258
*3635 FILLER_5_261
*3636 FILLER_5_264
*3637 FILLER_5_267
*3638 FILLER_5_27
*3639 FILLER_5_270
*3640 FILLER_5_273
*3641 FILLER_5_276
*3642 FILLER_5_279
*3643 FILLER_5_281
*3644 FILLER_5_284
*3645 FILLER_5_287
*3646 FILLER_5_290
*3647 FILLER_5_293
*3648 FILLER_5_296
*3649 FILLER_5_299
*3650 FILLER_5_3
*3651 FILLER_5_30
*3652 FILLER_5_302
*3653 FILLER_5_305
*3654 FILLER_5_308
*3655 FILLER_5_311
*3656 FILLER_5_314
*3657 FILLER_5_317
*3658 FILLER_5_320
*3659 FILLER_5_323
*3660 FILLER_5_326
*3661 FILLER_5_329
*3662 FILLER_5_33
*3663 FILLER_5_332
*3664 FILLER_5_36
*3665 FILLER_5_39
*3666 FILLER_5_42
*3667 FILLER_5_45
*3668 FILLER_5_48
*3669 FILLER_5_51
*3670 FILLER_5_54
*3671 FILLER_5_57
*3672 FILLER_5_6
*3673 FILLER_5_60
*3674 FILLER_5_63
*3675 FILLER_5_66
*3676 FILLER_5_69
*3677 FILLER_5_72
*3678 FILLER_5_75
*3679 FILLER_5_78
*3680 FILLER_5_81
*3681 FILLER_5_84
*3682 FILLER_5_87
*3683 FILLER_5_9
*3684 FILLER_5_90
*3685 FILLER_5_93
*3686 FILLER_5_96
*3687 FILLER_5_99
*3688 FILLER_6_100
*3689 FILLER_6_103
*3690 FILLER_6_106
*3691 FILLER_6_109
*3692 FILLER_6_112
*3693 FILLER_6_115
*3694 FILLER_6_118
*3695 FILLER_6_12
*3696 FILLER_6_121
*3697 FILLER_6_124
*3698 FILLER_6_127
*3699 FILLER_6_130
*3700 FILLER_6_133
*3701 FILLER_6_136
*3702 FILLER_6_139
*3703 FILLER_6_141
*3704 FILLER_6_144
*3705 FILLER_6_147
*3706 FILLER_6_15
*3707 FILLER_6_150
*3708 FILLER_6_153
*3709 FILLER_6_156
*3710 FILLER_6_159
*3711 FILLER_6_162
*3712 FILLER_6_165
*3713 FILLER_6_168
*3714 FILLER_6_171
*3715 FILLER_6_174
*3716 FILLER_6_177
*3717 FILLER_6_18
*3718 FILLER_6_180
*3719 FILLER_6_183
*3720 FILLER_6_186
*3721 FILLER_6_189
*3722 FILLER_6_192
*3723 FILLER_6_195
*3724 FILLER_6_197
*3725 FILLER_6_200
*3726 FILLER_6_203
*3727 FILLER_6_206
*3728 FILLER_6_209
*3729 FILLER_6_21
*3730 FILLER_6_212
*3731 FILLER_6_215
*3732 FILLER_6_218
*3733 FILLER_6_221
*3734 FILLER_6_224
*3735 FILLER_6_227
*3736 FILLER_6_230
*3737 FILLER_6_233
*3738 FILLER_6_236
*3739 FILLER_6_239
*3740 FILLER_6_24
*3741 FILLER_6_242
*3742 FILLER_6_245
*3743 FILLER_6_248
*3744 FILLER_6_251
*3745 FILLER_6_253
*3746 FILLER_6_256
*3747 FILLER_6_259
*3748 FILLER_6_262
*3749 FILLER_6_265
*3750 FILLER_6_268
*3751 FILLER_6_27
*3752 FILLER_6_271
*3753 FILLER_6_274
*3754 FILLER_6_277
*3755 FILLER_6_280
*3756 FILLER_6_283
*3757 FILLER_6_286
*3758 FILLER_6_289
*3759 FILLER_6_29
*3760 FILLER_6_292
*3761 FILLER_6_295
*3762 FILLER_6_298
*3763 FILLER_6_3
*3764 FILLER_6_301
*3765 FILLER_6_304
*3766 FILLER_6_307
*3767 FILLER_6_309
*3768 FILLER_6_312
*3769 FILLER_6_315
*3770 FILLER_6_318
*3771 FILLER_6_32
*3772 FILLER_6_321
*3773 FILLER_6_324
*3774 FILLER_6_327
*3775 FILLER_6_330
*3776 FILLER_6_333
*3777 FILLER_6_35
*3778 FILLER_6_38
*3779 FILLER_6_41
*3780 FILLER_6_44
*3781 FILLER_6_47
*3782 FILLER_6_50
*3783 FILLER_6_53
*3784 FILLER_6_56
*3785 FILLER_6_59
*3786 FILLER_6_6
*3787 FILLER_6_62
*3788 FILLER_6_65
*3789 FILLER_6_68
*3790 FILLER_6_71
*3791 FILLER_6_74
*3792 FILLER_6_77
*3793 FILLER_6_80
*3794 FILLER_6_83
*3795 FILLER_6_85
*3796 FILLER_6_88
*3797 FILLER_6_9
*3798 FILLER_6_91
*3799 FILLER_6_94
*3800 FILLER_6_97
*3801 FILLER_7_102
*3802 FILLER_7_105
*3803 FILLER_7_108
*3804 FILLER_7_111
*3805 FILLER_7_113
*3806 FILLER_7_116
*3807 FILLER_7_119
*3808 FILLER_7_12
*3809 FILLER_7_122
*3810 FILLER_7_125
*3811 FILLER_7_128
*3812 FILLER_7_131
*3813 FILLER_7_134
*3814 FILLER_7_137
*3815 FILLER_7_140
*3816 FILLER_7_143
*3817 FILLER_7_146
*3818 FILLER_7_149
*3819 FILLER_7_15
*3820 FILLER_7_152
*3821 FILLER_7_155
*3822 FILLER_7_158
*3823 FILLER_7_161
*3824 FILLER_7_164
*3825 FILLER_7_167
*3826 FILLER_7_169
*3827 FILLER_7_172
*3828 FILLER_7_175
*3829 FILLER_7_178
*3830 FILLER_7_18
*3831 FILLER_7_181
*3832 FILLER_7_184
*3833 FILLER_7_187
*3834 FILLER_7_190
*3835 FILLER_7_193
*3836 FILLER_7_196
*3837 FILLER_7_199
*3838 FILLER_7_202
*3839 FILLER_7_205
*3840 FILLER_7_208
*3841 FILLER_7_21
*3842 FILLER_7_211
*3843 FILLER_7_214
*3844 FILLER_7_217
*3845 FILLER_7_220
*3846 FILLER_7_223
*3847 FILLER_7_225
*3848 FILLER_7_228
*3849 FILLER_7_231
*3850 FILLER_7_234
*3851 FILLER_7_237
*3852 FILLER_7_24
*3853 FILLER_7_240
*3854 FILLER_7_243
*3855 FILLER_7_246
*3856 FILLER_7_249
*3857 FILLER_7_252
*3858 FILLER_7_255
*3859 FILLER_7_258
*3860 FILLER_7_261
*3861 FILLER_7_264
*3862 FILLER_7_267
*3863 FILLER_7_27
*3864 FILLER_7_270
*3865 FILLER_7_273
*3866 FILLER_7_276
*3867 FILLER_7_279
*3868 FILLER_7_281
*3869 FILLER_7_284
*3870 FILLER_7_287
*3871 FILLER_7_290
*3872 FILLER_7_293
*3873 FILLER_7_296
*3874 FILLER_7_299
*3875 FILLER_7_3
*3876 FILLER_7_30
*3877 FILLER_7_302
*3878 FILLER_7_305
*3879 FILLER_7_308
*3880 FILLER_7_311
*3881 FILLER_7_314
*3882 FILLER_7_317
*3883 FILLER_7_320
*3884 FILLER_7_323
*3885 FILLER_7_326
*3886 FILLER_7_329
*3887 FILLER_7_33
*3888 FILLER_7_332
*3889 FILLER_7_36
*3890 FILLER_7_39
*3891 FILLER_7_42
*3892 FILLER_7_45
*3893 FILLER_7_48
*3894 FILLER_7_51
*3895 FILLER_7_54
*3896 FILLER_7_57
*3897 FILLER_7_6
*3898 FILLER_7_60
*3899 FILLER_7_63
*3900 FILLER_7_66
*3901 FILLER_7_69
*3902 FILLER_7_72
*3903 FILLER_7_75
*3904 FILLER_7_78
*3905 FILLER_7_81
*3906 FILLER_7_84
*3907 FILLER_7_87
*3908 FILLER_7_9
*3909 FILLER_7_90
*3910 FILLER_7_93
*3911 FILLER_7_96
*3912 FILLER_7_99
*3913 FILLER_8_100
*3914 FILLER_8_103
*3915 FILLER_8_106
*3916 FILLER_8_109
*3917 FILLER_8_112
*3918 FILLER_8_115
*3919 FILLER_8_118
*3920 FILLER_8_12
*3921 FILLER_8_121
*3922 FILLER_8_124
*3923 FILLER_8_127
*3924 FILLER_8_130
*3925 FILLER_8_133
*3926 FILLER_8_136
*3927 FILLER_8_139
*3928 FILLER_8_141
*3929 FILLER_8_144
*3930 FILLER_8_147
*3931 FILLER_8_15
*3932 FILLER_8_150
*3933 FILLER_8_153
*3934 FILLER_8_156
*3935 FILLER_8_159
*3936 FILLER_8_162
*3937 FILLER_8_165
*3938 FILLER_8_168
*3939 FILLER_8_171
*3940 FILLER_8_174
*3941 FILLER_8_177
*3942 FILLER_8_18
*3943 FILLER_8_180
*3944 FILLER_8_183
*3945 FILLER_8_186
*3946 FILLER_8_189
*3947 FILLER_8_192
*3948 FILLER_8_195
*3949 FILLER_8_197
*3950 FILLER_8_200
*3951 FILLER_8_203
*3952 FILLER_8_206
*3953 FILLER_8_209
*3954 FILLER_8_21
*3955 FILLER_8_212
*3956 FILLER_8_215
*3957 FILLER_8_218
*3958 FILLER_8_221
*3959 FILLER_8_224
*3960 FILLER_8_227
*3961 FILLER_8_230
*3962 FILLER_8_233
*3963 FILLER_8_236
*3964 FILLER_8_239
*3965 FILLER_8_24
*3966 FILLER_8_242
*3967 FILLER_8_245
*3968 FILLER_8_248
*3969 FILLER_8_251
*3970 FILLER_8_253
*3971 FILLER_8_256
*3972 FILLER_8_259
*3973 FILLER_8_262
*3974 FILLER_8_265
*3975 FILLER_8_268
*3976 FILLER_8_27
*3977 FILLER_8_271
*3978 FILLER_8_274
*3979 FILLER_8_277
*3980 FILLER_8_280
*3981 FILLER_8_283
*3982 FILLER_8_286
*3983 FILLER_8_289
*3984 FILLER_8_29
*3985 FILLER_8_292
*3986 FILLER_8_295
*3987 FILLER_8_298
*3988 FILLER_8_3
*3989 FILLER_8_301
*3990 FILLER_8_304
*3991 FILLER_8_307
*3992 FILLER_8_309
*3993 FILLER_8_312
*3994 FILLER_8_315
*3995 FILLER_8_318
*3996 FILLER_8_32
*3997 FILLER_8_321
*3998 FILLER_8_324
*3999 FILLER_8_327
*4000 FILLER_8_330
*4001 FILLER_8_333
*4002 FILLER_8_35
*4003 FILLER_8_38
*4004 FILLER_8_41
*4005 FILLER_8_44
*4006 FILLER_8_47
*4007 FILLER_8_50
*4008 FILLER_8_53
*4009 FILLER_8_56
*4010 FILLER_8_59
*4011 FILLER_8_6
*4012 FILLER_8_62
*4013 FILLER_8_65
*4014 FILLER_8_68
*4015 FILLER_8_71
*4016 FILLER_8_74
*4017 FILLER_8_77
*4018 FILLER_8_80
*4019 FILLER_8_83
*4020 FILLER_8_85
*4021 FILLER_8_88
*4022 FILLER_8_9
*4023 FILLER_8_91
*4024 FILLER_8_94
*4025 FILLER_8_97
*4026 FILLER_9_102
*4027 FILLER_9_105
*4028 FILLER_9_108
*4029 FILLER_9_111
*4030 FILLER_9_113
*4031 FILLER_9_116
*4032 FILLER_9_119
*4033 FILLER_9_12
*4034 FILLER_9_122
*4035 FILLER_9_125
*4036 FILLER_9_128
*4037 FILLER_9_131
*4038 FILLER_9_134
*4039 FILLER_9_137
*4040 FILLER_9_140
*4041 FILLER_9_143
*4042 FILLER_9_146
*4043 FILLER_9_149
*4044 FILLER_9_15
*4045 FILLER_9_152
*4046 FILLER_9_155
*4047 FILLER_9_158
*4048 FILLER_9_161
*4049 FILLER_9_164
*4050 FILLER_9_167
*4051 FILLER_9_169
*4052 FILLER_9_172
*4053 FILLER_9_175
*4054 FILLER_9_178
*4055 FILLER_9_18
*4056 FILLER_9_181
*4057 FILLER_9_184
*4058 FILLER_9_187
*4059 FILLER_9_190
*4060 FILLER_9_193
*4061 FILLER_9_196
*4062 FILLER_9_199
*4063 FILLER_9_202
*4064 FILLER_9_205
*4065 FILLER_9_208
*4066 FILLER_9_21
*4067 FILLER_9_211
*4068 FILLER_9_214
*4069 FILLER_9_217
*4070 FILLER_9_220
*4071 FILLER_9_223
*4072 FILLER_9_225
*4073 FILLER_9_228
*4074 FILLER_9_231
*4075 FILLER_9_234
*4076 FILLER_9_237
*4077 FILLER_9_24
*4078 FILLER_9_240
*4079 FILLER_9_243
*4080 FILLER_9_246
*4081 FILLER_9_249
*4082 FILLER_9_252
*4083 FILLER_9_255
*4084 FILLER_9_258
*4085 FILLER_9_261
*4086 FILLER_9_264
*4087 FILLER_9_267
*4088 FILLER_9_27
*4089 FILLER_9_270
*4090 FILLER_9_273
*4091 FILLER_9_276
*4092 FILLER_9_279
*4093 FILLER_9_281
*4094 FILLER_9_284
*4095 FILLER_9_287
*4096 FILLER_9_290
*4097 FILLER_9_293
*4098 FILLER_9_296
*4099 FILLER_9_299
*4100 FILLER_9_3
*4101 FILLER_9_30
*4102 FILLER_9_302
*4103 FILLER_9_305
*4104 FILLER_9_308
*4105 FILLER_9_311
*4106 FILLER_9_314
*4107 FILLER_9_317
*4108 FILLER_9_320
*4109 FILLER_9_323
*4110 FILLER_9_326
*4111 FILLER_9_329
*4112 FILLER_9_33
*4113 FILLER_9_332
*4114 FILLER_9_36
*4115 FILLER_9_39
*4116 FILLER_9_42
*4117 FILLER_9_45
*4118 FILLER_9_48
*4119 FILLER_9_51
*4120 FILLER_9_54
*4121 FILLER_9_57
*4122 FILLER_9_6
*4123 FILLER_9_60
*4124 FILLER_9_63
*4125 FILLER_9_66
*4126 FILLER_9_69
*4127 FILLER_9_72
*4128 FILLER_9_75
*4129 FILLER_9_78
*4130 FILLER_9_81
*4131 FILLER_9_84
*4132 FILLER_9_87
*4133 FILLER_9_9
*4134 FILLER_9_90
*4135 FILLER_9_93
*4136 FILLER_9_96
*4137 FILLER_9_99
*4138 PHY_EDGE_ROW_0_Left_39
*4139 PHY_EDGE_ROW_0_Right_0
*4140 PHY_EDGE_ROW_10_Left_49
*4141 PHY_EDGE_ROW_10_Right_10
*4142 PHY_EDGE_ROW_11_Left_50
*4143 PHY_EDGE_ROW_11_Right_11
*4144 PHY_EDGE_ROW_12_Left_51
*4145 PHY_EDGE_ROW_12_Right_12
*4146 PHY_EDGE_ROW_13_Left_52
*4147 PHY_EDGE_ROW_13_Right_13
*4148 PHY_EDGE_ROW_14_Left_53
*4149 PHY_EDGE_ROW_14_Right_14
*4150 PHY_EDGE_ROW_15_Left_54
*4151 PHY_EDGE_ROW_15_Right_15
*4152 PHY_EDGE_ROW_16_Left_55
*4153 PHY_EDGE_ROW_16_Right_16
*4154 PHY_EDGE_ROW_17_Left_56
*4155 PHY_EDGE_ROW_17_Right_17
*4156 PHY_EDGE_ROW_18_Left_57
*4157 PHY_EDGE_ROW_18_Right_18
*4158 PHY_EDGE_ROW_19_Left_58
*4159 PHY_EDGE_ROW_19_Right_19
*4160 PHY_EDGE_ROW_1_Left_40
*4161 PHY_EDGE_ROW_1_Right_1
*4162 PHY_EDGE_ROW_20_Left_59
*4163 PHY_EDGE_ROW_20_Right_20
*4164 PHY_EDGE_ROW_21_Left_60
*4165 PHY_EDGE_ROW_21_Right_21
*4166 PHY_EDGE_ROW_22_Left_61
*4167 PHY_EDGE_ROW_22_Right_22
*4168 PHY_EDGE_ROW_23_Left_62
*4169 PHY_EDGE_ROW_23_Right_23
*4170 PHY_EDGE_ROW_24_Left_63
*4171 PHY_EDGE_ROW_24_Right_24
*4172 PHY_EDGE_ROW_25_Left_64
*4173 PHY_EDGE_ROW_25_Right_25
*4174 PHY_EDGE_ROW_26_Left_65
*4175 PHY_EDGE_ROW_26_Right_26
*4176 PHY_EDGE_ROW_27_Left_66
*4177 PHY_EDGE_ROW_27_Right_27
*4178 PHY_EDGE_ROW_28_Left_67
*4179 PHY_EDGE_ROW_28_Right_28
*4180 PHY_EDGE_ROW_29_Left_68
*4181 PHY_EDGE_ROW_29_Right_29
*4182 PHY_EDGE_ROW_2_Left_41
*4183 PHY_EDGE_ROW_2_Right_2
*4184 PHY_EDGE_ROW_30_Left_69
*4185 PHY_EDGE_ROW_30_Right_30
*4186 PHY_EDGE_ROW_31_Left_70
*4187 PHY_EDGE_ROW_31_Right_31
*4188 PHY_EDGE_ROW_32_Left_71
*4189 PHY_EDGE_ROW_32_Right_32
*4190 PHY_EDGE_ROW_33_Left_72
*4191 PHY_EDGE_ROW_33_Right_33
*4192 PHY_EDGE_ROW_34_Left_73
*4193 PHY_EDGE_ROW_34_Right_34
*4194 PHY_EDGE_ROW_35_Left_74
*4195 PHY_EDGE_ROW_35_Right_35
*4196 PHY_EDGE_ROW_36_Left_75
*4197 PHY_EDGE_ROW_36_Right_36
*4198 PHY_EDGE_ROW_37_Left_76
*4199 PHY_EDGE_ROW_37_Right_37
*4200 PHY_EDGE_ROW_38_Left_77
*4201 PHY_EDGE_ROW_38_Right_38
*4202 PHY_EDGE_ROW_3_Left_42
*4203 PHY_EDGE_ROW_3_Right_3
*4204 PHY_EDGE_ROW_4_Left_43
*4205 PHY_EDGE_ROW_4_Right_4
*4206 PHY_EDGE_ROW_5_Left_44
*4207 PHY_EDGE_ROW_5_Right_5
*4208 PHY_EDGE_ROW_6_Left_45
*4209 PHY_EDGE_ROW_6_Right_6
*4210 PHY_EDGE_ROW_7_Left_46
*4211 PHY_EDGE_ROW_7_Right_7
*4212 PHY_EDGE_ROW_8_Left_47
*4213 PHY_EDGE_ROW_8_Right_8
*4214 PHY_EDGE_ROW_9_Left_48
*4215 PHY_EDGE_ROW_9_Right_9
*4216 TAP_TAPCELL_ROW_0_78
*4217 TAP_TAPCELL_ROW_0_79
*4218 TAP_TAPCELL_ROW_0_80
*4219 TAP_TAPCELL_ROW_0_81
*4220 TAP_TAPCELL_ROW_0_82
*4221 TAP_TAPCELL_ROW_0_83
*4222 TAP_TAPCELL_ROW_0_84
*4223 TAP_TAPCELL_ROW_0_85
*4224 TAP_TAPCELL_ROW_0_86
*4225 TAP_TAPCELL_ROW_0_87
*4226 TAP_TAPCELL_ROW_0_88
*4227 TAP_TAPCELL_ROW_10_138
*4228 TAP_TAPCELL_ROW_10_139
*4229 TAP_TAPCELL_ROW_10_140
*4230 TAP_TAPCELL_ROW_10_141
*4231 TAP_TAPCELL_ROW_10_142
*4232 TAP_TAPCELL_ROW_10_143
*4233 TAP_TAPCELL_ROW_11_144
*4234 TAP_TAPCELL_ROW_11_145
*4235 TAP_TAPCELL_ROW_11_146
*4236 TAP_TAPCELL_ROW_11_147
*4237 TAP_TAPCELL_ROW_11_148
*4238 TAP_TAPCELL_ROW_12_149
*4239 TAP_TAPCELL_ROW_12_150
*4240 TAP_TAPCELL_ROW_12_151
*4241 TAP_TAPCELL_ROW_12_152
*4242 TAP_TAPCELL_ROW_12_153
*4243 TAP_TAPCELL_ROW_12_154
*4244 TAP_TAPCELL_ROW_13_155
*4245 TAP_TAPCELL_ROW_13_156
*4246 TAP_TAPCELL_ROW_13_157
*4247 TAP_TAPCELL_ROW_13_158
*4248 TAP_TAPCELL_ROW_13_159
*4249 TAP_TAPCELL_ROW_14_160
*4250 TAP_TAPCELL_ROW_14_161
*4251 TAP_TAPCELL_ROW_14_162
*4252 TAP_TAPCELL_ROW_14_163
*4253 TAP_TAPCELL_ROW_14_164
*4254 TAP_TAPCELL_ROW_14_165
*4255 TAP_TAPCELL_ROW_15_166
*4256 TAP_TAPCELL_ROW_15_167
*4257 TAP_TAPCELL_ROW_15_168
*4258 TAP_TAPCELL_ROW_15_169
*4259 TAP_TAPCELL_ROW_15_170
*4260 TAP_TAPCELL_ROW_16_171
*4261 TAP_TAPCELL_ROW_16_172
*4262 TAP_TAPCELL_ROW_16_173
*4263 TAP_TAPCELL_ROW_16_174
*4264 TAP_TAPCELL_ROW_16_175
*4265 TAP_TAPCELL_ROW_16_176
*4266 TAP_TAPCELL_ROW_17_177
*4267 TAP_TAPCELL_ROW_17_178
*4268 TAP_TAPCELL_ROW_17_179
*4269 TAP_TAPCELL_ROW_17_180
*4270 TAP_TAPCELL_ROW_17_181
*4271 TAP_TAPCELL_ROW_18_182
*4272 TAP_TAPCELL_ROW_18_183
*4273 TAP_TAPCELL_ROW_18_184
*4274 TAP_TAPCELL_ROW_18_185
*4275 TAP_TAPCELL_ROW_18_186
*4276 TAP_TAPCELL_ROW_18_187
*4277 TAP_TAPCELL_ROW_19_188
*4278 TAP_TAPCELL_ROW_19_189
*4279 TAP_TAPCELL_ROW_19_190
*4280 TAP_TAPCELL_ROW_19_191
*4281 TAP_TAPCELL_ROW_19_192
*4282 TAP_TAPCELL_ROW_1_89
*4283 TAP_TAPCELL_ROW_1_90
*4284 TAP_TAPCELL_ROW_1_91
*4285 TAP_TAPCELL_ROW_1_92
*4286 TAP_TAPCELL_ROW_1_93
*4287 TAP_TAPCELL_ROW_20_193
*4288 TAP_TAPCELL_ROW_20_194
*4289 TAP_TAPCELL_ROW_20_195
*4290 TAP_TAPCELL_ROW_20_196
*4291 TAP_TAPCELL_ROW_20_197
*4292 TAP_TAPCELL_ROW_20_198
*4293 TAP_TAPCELL_ROW_21_199
*4294 TAP_TAPCELL_ROW_21_200
*4295 TAP_TAPCELL_ROW_21_201
*4296 TAP_TAPCELL_ROW_21_202
*4297 TAP_TAPCELL_ROW_21_203
*4298 TAP_TAPCELL_ROW_22_204
*4299 TAP_TAPCELL_ROW_22_205
*4300 TAP_TAPCELL_ROW_22_206
*4301 TAP_TAPCELL_ROW_22_207
*4302 TAP_TAPCELL_ROW_22_208
*4303 TAP_TAPCELL_ROW_22_209
*4304 TAP_TAPCELL_ROW_23_210
*4305 TAP_TAPCELL_ROW_23_211
*4306 TAP_TAPCELL_ROW_23_212
*4307 TAP_TAPCELL_ROW_23_213
*4308 TAP_TAPCELL_ROW_23_214
*4309 TAP_TAPCELL_ROW_24_215
*4310 TAP_TAPCELL_ROW_24_216
*4311 TAP_TAPCELL_ROW_24_217
*4312 TAP_TAPCELL_ROW_24_218
*4313 TAP_TAPCELL_ROW_24_219
*4314 TAP_TAPCELL_ROW_24_220
*4315 TAP_TAPCELL_ROW_25_221
*4316 TAP_TAPCELL_ROW_25_222
*4317 TAP_TAPCELL_ROW_25_223
*4318 TAP_TAPCELL_ROW_25_224
*4319 TAP_TAPCELL_ROW_25_225
*4320 TAP_TAPCELL_ROW_26_226
*4321 TAP_TAPCELL_ROW_26_227
*4322 TAP_TAPCELL_ROW_26_228
*4323 TAP_TAPCELL_ROW_26_229
*4324 TAP_TAPCELL_ROW_26_230
*4325 TAP_TAPCELL_ROW_26_231
*4326 TAP_TAPCELL_ROW_27_232
*4327 TAP_TAPCELL_ROW_27_233
*4328 TAP_TAPCELL_ROW_27_234
*4329 TAP_TAPCELL_ROW_27_235
*4330 TAP_TAPCELL_ROW_27_236
*4331 TAP_TAPCELL_ROW_28_237
*4332 TAP_TAPCELL_ROW_28_238
*4333 TAP_TAPCELL_ROW_28_239
*4334 TAP_TAPCELL_ROW_28_240
*4335 TAP_TAPCELL_ROW_28_241
*4336 TAP_TAPCELL_ROW_28_242
*4337 TAP_TAPCELL_ROW_29_243
*4338 TAP_TAPCELL_ROW_29_244
*4339 TAP_TAPCELL_ROW_29_245
*4340 TAP_TAPCELL_ROW_29_246
*4341 TAP_TAPCELL_ROW_29_247
*4342 TAP_TAPCELL_ROW_2_94
*4343 TAP_TAPCELL_ROW_2_95
*4344 TAP_TAPCELL_ROW_2_96
*4345 TAP_TAPCELL_ROW_2_97
*4346 TAP_TAPCELL_ROW_2_98
*4347 TAP_TAPCELL_ROW_2_99
*4348 TAP_TAPCELL_ROW_30_248
*4349 TAP_TAPCELL_ROW_30_249
*4350 TAP_TAPCELL_ROW_30_250
*4351 TAP_TAPCELL_ROW_30_251
*4352 TAP_TAPCELL_ROW_30_252
*4353 TAP_TAPCELL_ROW_30_253
*4354 TAP_TAPCELL_ROW_31_254
*4355 TAP_TAPCELL_ROW_31_255
*4356 TAP_TAPCELL_ROW_31_256
*4357 TAP_TAPCELL_ROW_31_257
*4358 TAP_TAPCELL_ROW_31_258
*4359 TAP_TAPCELL_ROW_32_259
*4360 TAP_TAPCELL_ROW_32_260
*4361 TAP_TAPCELL_ROW_32_261
*4362 TAP_TAPCELL_ROW_32_262
*4363 TAP_TAPCELL_ROW_32_263
*4364 TAP_TAPCELL_ROW_32_264
*4365 TAP_TAPCELL_ROW_33_265
*4366 TAP_TAPCELL_ROW_33_266
*4367 TAP_TAPCELL_ROW_33_267
*4368 TAP_TAPCELL_ROW_33_268
*4369 TAP_TAPCELL_ROW_33_269
*4370 TAP_TAPCELL_ROW_34_270
*4371 TAP_TAPCELL_ROW_34_271
*4372 TAP_TAPCELL_ROW_34_272
*4373 TAP_TAPCELL_ROW_34_273
*4374 TAP_TAPCELL_ROW_34_274
*4375 TAP_TAPCELL_ROW_34_275
*4376 TAP_TAPCELL_ROW_35_276
*4377 TAP_TAPCELL_ROW_35_277
*4378 TAP_TAPCELL_ROW_35_278
*4379 TAP_TAPCELL_ROW_35_279
*4380 TAP_TAPCELL_ROW_35_280
*4381 TAP_TAPCELL_ROW_36_281
*4382 TAP_TAPCELL_ROW_36_282
*4383 TAP_TAPCELL_ROW_36_283
*4384 TAP_TAPCELL_ROW_36_284
*4385 TAP_TAPCELL_ROW_36_285
*4386 TAP_TAPCELL_ROW_36_286
*4387 TAP_TAPCELL_ROW_37_287
*4388 TAP_TAPCELL_ROW_37_288
*4389 TAP_TAPCELL_ROW_37_289
*4390 TAP_TAPCELL_ROW_37_290
*4391 TAP_TAPCELL_ROW_37_291
*4392 TAP_TAPCELL_ROW_38_292
*4393 TAP_TAPCELL_ROW_38_293
*4394 TAP_TAPCELL_ROW_38_294
*4395 TAP_TAPCELL_ROW_38_295
*4396 TAP_TAPCELL_ROW_38_296
*4397 TAP_TAPCELL_ROW_38_297
*4398 TAP_TAPCELL_ROW_38_298
*4399 TAP_TAPCELL_ROW_38_299
*4400 TAP_TAPCELL_ROW_38_300
*4401 TAP_TAPCELL_ROW_38_301
*4402 TAP_TAPCELL_ROW_38_302
*4403 TAP_TAPCELL_ROW_3_100
*4404 TAP_TAPCELL_ROW_3_101
*4405 TAP_TAPCELL_ROW_3_102
*4406 TAP_TAPCELL_ROW_3_103
*4407 TAP_TAPCELL_ROW_3_104
*4408 TAP_TAPCELL_ROW_4_105
*4409 TAP_TAPCELL_ROW_4_106
*4410 TAP_TAPCELL_ROW_4_107
*4411 TAP_TAPCELL_ROW_4_108
*4412 TAP_TAPCELL_ROW_4_109
*4413 TAP_TAPCELL_ROW_4_110
*4414 TAP_TAPCELL_ROW_5_111
*4415 TAP_TAPCELL_ROW_5_112
*4416 TAP_TAPCELL_ROW_5_113
*4417 TAP_TAPCELL_ROW_5_114
*4418 TAP_TAPCELL_ROW_5_115
*4419 TAP_TAPCELL_ROW_6_116
*4420 TAP_TAPCELL_ROW_6_117
*4421 TAP_TAPCELL_ROW_6_118
*4422 TAP_TAPCELL_ROW_6_119
*4423 TAP_TAPCELL_ROW_6_120
*4424 TAP_TAPCELL_ROW_6_121
*4425 TAP_TAPCELL_ROW_7_122
*4426 TAP_TAPCELL_ROW_7_123
*4427 TAP_TAPCELL_ROW_7_124
*4428 TAP_TAPCELL_ROW_7_125
*4429 TAP_TAPCELL_ROW_7_126
*4430 TAP_TAPCELL_ROW_8_127
*4431 TAP_TAPCELL_ROW_8_128
*4432 TAP_TAPCELL_ROW_8_129
*4433 TAP_TAPCELL_ROW_8_130
*4434 TAP_TAPCELL_ROW_8_131
*4435 TAP_TAPCELL_ROW_8_132
*4436 TAP_TAPCELL_ROW_9_133
*4437 TAP_TAPCELL_ROW_9_134
*4438 TAP_TAPCELL_ROW_9_135
*4439 TAP_TAPCELL_ROW_9_136
*4440 TAP_TAPCELL_ROW_9_137
*4441 _153_
*4442 _154_
*4443 _155_
*4444 _156_
*4445 _157_
*4446 _158_
*4447 _159_
*4448 _160_
*4449 _161_
*4450 _162_
*4451 _163_
*4452 _164_
*4453 _165_
*4454 _166_
*4455 _167_
*4456 _168_
*4457 _169_
*4458 _170_
*4459 _171_
*4460 _172_
*4461 _173_
*4462 _174_
*4463 _175_
*4464 _176_
*4465 _177_
*4466 _178_
*4467 _179_
*4468 _180_
*4469 _181_
*4470 _182_
*4471 _183_
*4472 _184_
*4473 _185_
*4474 _186_
*4475 _187_
*4476 _188_
*4477 _189_
*4478 _190_
*4479 _191_
*4480 _192_
*4481 _193_
*4482 _194_
*4483 _195_
*4484 _196_
*4485 _197_
*4486 _198_
*4487 _199_
*4488 _200_
*4489 _201_
*4490 _202_
*4491 _203_
*4492 _204_
*4493 _205_
*4494 _206_
*4495 _207_
*4496 _208_
*4497 _209_
*4498 _210_
*4499 _211_
*4500 _212_
*4501 _213_
*4502 _214_
*4503 _215_
*4504 _216_
*4505 _217_
*4506 _218_
*4507 _219_
*4508 _220_
*4509 _221_
*4510 _222_
*4511 _223_
*4512 _224_
*4513 _225_
*4514 _226_
*4515 _227_
*4516 _228_
*4517 _229_
*4518 _230_
*4519 _231_
*4520 _232_
*4521 _233_
*4522 _234_
*4523 _235_
*4524 _236_
*4525 _237_
*4526 _238_
*4527 _239_
*4528 _240_
*4529 _241_
*4530 _242_
*4531 _243_
*4532 _244_
*4533 _245_
*4534 _246_
*4535 _247_
*4536 _248_
*4537 _249_
*4538 _250_
*4539 _251_
*4540 _252_
*4541 _253_
*4542 _254_
*4543 _255_
*4544 _256_
*4545 _257_
*4546 _258_
*4547 _259_
*4548 _260_
*4549 _261_
*4550 _262_
*4551 _263_
*4552 _264_
*4553 _265_
*4554 _266_
*4555 _267_
*4556 _268_
*4557 _269_
*4558 _270_
*4559 _271_
*4560 _272_
*4561 _273_
*4562 _274_
*4563 _275_
*4564 _276_
*4565 _277_
*4566 _278_
*4567 _279_
*4568 _280_
*4569 _281_
*4570 _282_
*4571 _283_
*4572 _284_
*4573 _285_
*4574 _286_
*4575 _287_
*4576 _288_
*4577 _289_
*4578 _290_
*4579 _291_
*4580 _292_
*4581 _293_
*4582 _294_
*4583 _295_
*4584 _296_
*4585 _297_
*4586 _298_
*4587 _299_
*4588 _300_
*4589 _301_
*4590 _302_
*4591 _303_
*4592 _304_
*4593 _305_
*4594 _306_
*4595 _307_
*4596 _308_
*4597 _309_
*4598 _310_
*4599 _311_
*4600 _312_
*4601 _313_
*4602 _314_
*4603 _315_
*4604 _316_
*4605 _317_
*4606 _318_
*4607 _319_
*4608 _320_
*4609 _321_
*4610 clkbuf_0_clk
*4611 clkbuf_1_0__f_clk
*4612 clkbuf_1_1__f_clk
*4613 clkload0
*4614 fanout32
*4615 fanout33
*4616 fanout34
*4617 fanout35
*4618 fanout36
*4619 fanout37
*4620 fanout38
*4621 fanout39
*4622 fanout40
*4623 fanout41
*4624 fanout42
*4625 fanout43
*4626 fanout44
*4627 fanout45
*4628 fanout46
*4629 hold1
*4630 hold2
*4631 hold3
*4632 hold4
*4633 hold5
*4634 hold6
*4635 input1
*4636 input2
*4637 input3
*4638 input4
*4639 input5
*4640 input6
*4641 input7
*4642 input8
*4643 max_cap17
*4644 max_cap19
*4645 max_cap20
*4646 max_cap23
*4647 output10
*4648 output11
*4649 output12
*4650 output13
*4651 output14
*4652 output15
*4653 output16
*4654 output9
*4655 tt_um_chip_rom_24
*4656 tt_um_chip_rom_25
*4657 tt_um_chip_rom_26
*4658 tt_um_chip_rom_27
*4659 tt_um_chip_rom_28
*4660 tt_um_chip_rom_29
*4661 tt_um_chip_rom_30
*4662 tt_um_chip_rom_31
*4663 tt_um_chip_rom_32
*4664 tt_um_chip_rom_33
*4665 tt_um_chip_rom_34
*4666 tt_um_chip_rom_35
*4667 tt_um_chip_rom_36
*4668 tt_um_chip_rom_37
*4669 tt_um_chip_rom_38
*4670 tt_um_chip_rom_39
*4671 wire18
*4672 wire21
*4673 wire22

*PORTS
clk I
ena I
rst_n I
ui_in[0] I
ui_in[1] I
ui_in[2] I
ui_in[3] I
ui_in[4] I
ui_in[5] I
ui_in[6] I
ui_in[7] I
uio_in[0] I
uio_in[1] I
uio_in[2] I
uio_in[3] I
uio_in[4] I
uio_in[5] I
uio_in[6] I
uio_in[7] I
uio_oe[0] O
uio_oe[1] O
uio_oe[2] O
uio_oe[3] O
uio_oe[4] O
uio_oe[5] O
uio_oe[6] O
uio_oe[7] O
uio_out[0] O
uio_out[1] O
uio_out[2] O
uio_out[3] O
uio_out[4] O
uio_out[5] O
uio_out[6] O
uio_out[7] O
uo_out[0] O
uo_out[1] O
uo_out[2] O
uo_out[3] O
uo_out[4] O
uo_out[5] O
uo_out[6] O
uo_out[7] O

*D_NET *3 0.00427724
*CONN
*P clk I
*I *4610:A I *D sky130_fd_sc_hd__clkbuf_16
*CAP
1 clk 0.00157689
2 *4610:A 0
3 *3:13 0.00157689
4 *3:13 *4584:B 0
5 *3:13 *4631:A 5.30518e-05
6 *3:13 *5:11 4.02518e-05
7 *3:13 *6:15 0.000145711
8 *3:13 *7:15 0.000155396
9 *3:13 *135:19 0
10 *3:13 *201:10 6.6869e-05
11 *3:13 *201:16 0.00020395
12 *3:13 *210:8 9.32613e-05
13 *3:13 *221:10 0.000203853
14 *3:13 *245:33 0.000161121
*RES
1 clk *3:13 42.8763 
2 *3:13 *4610:A 38 
*END

*D_NET *5 0.00776931
*CONN
*P rst_n I
*I *4628:A I *D sky130_fd_sc_hd__clkbuf_1
*CAP
1 rst_n 0.00113452
2 *4628:A 0
3 *5:13 0.00183815
4 *5:11 0.00297267
5 *5:11 *6:15 1.74644e-05
6 *5:11 *7:15 0
7 *5:13 *4603:CLK 0
8 *5:13 *4605:CLK 0
9 *5:13 *49:10 0
10 *5:13 *50:10 0
11 *5:13 *51:10 0
12 *5:13 *55:10 0.000179465
13 *5:13 *59:10 0.000131878
14 *5:13 *137:8 0
15 *5:13 *138:10 0
16 *5:13 *139:8 0
17 *5:13 *204:24 0
18 *5:13 *208:10 0
19 *5:13 *208:16 0
20 *5:13 *225:22 0.000119943
21 *5:13 *225:24 0.000239789
22 *5:13 *225:35 0.000437176
23 *5:13 *225:50 0.00051613
24 *5:13 *242:10 0.000141879
25 *5:13 *247:10 0
26 *5:13 *248:10 0
27 *3:13 *5:11 4.02518e-05
*RES
1 rst_n *5:11 18.7813 
2 *5:11 *5:13 43.9868 
3 *5:13 *4628:A 38 
*END

*D_NET *6 0.000746863
*CONN
*P ui_in[0] I
*I *4635:A I *D sky130_fd_sc_hd__buf_1
*CAP
1 ui_in[0] 0.000280618
2 *4635:A 0
3 *6:15 0.000280618
4 *6:15 *7:15 2.24522e-05
5 *3:13 *6:15 0.000145711
6 *5:11 *6:15 1.74644e-05
*RES
1 ui_in[0] *6:15 34.8861 
2 *6:15 *4635:A 23 
*END

*D_NET *7 0.000800074
*CONN
*P ui_in[1] I
*I *4636:A I *D sky130_fd_sc_hd__buf_1
*CAP
1 ui_in[1] 0.000279593
2 *4636:A 0
3 *7:15 0.000279593
4 *7:15 *8:15 6.30391e-05
5 *3:13 *7:15 0.000155396
6 *5:11 *7:15 0
7 *6:15 *7:15 2.24522e-05
*RES
1 ui_in[1] *7:15 33.7314 
2 *7:15 *4636:A 23 
*END

*D_NET *8 0.000738765
*CONN
*P ui_in[2] I
*I *4637:A I *D sky130_fd_sc_hd__buf_1
*CAP
1 ui_in[2] 0.000306343
2 *4637:A 0
3 *8:15 0.000306343
4 *8:15 *9:15 6.30391e-05
5 *8:15 *199:36 0
6 *7:15 *8:15 6.30391e-05
*RES
1 ui_in[2] *8:15 33.7314 
2 *8:15 *4637:A 23 
*END

*D_NET *9 0.000666989
*CONN
*P ui_in[3] I
*I *4638:A I *D sky130_fd_sc_hd__buf_1
*CAP
1 ui_in[3] 0.000239633
2 *4638:A 0
3 *9:15 0.000239633
4 *9:15 *10:15 6.30391e-05
5 *9:15 *199:36 0
6 *9:15 *226:12 6.16439e-05
7 *8:15 *9:15 6.30391e-05
*RES
1 ui_in[3] *9:15 33.5597 
2 *9:15 *4638:A 23 
*END

*D_NET *10 0.000734823
*CONN
*P ui_in[4] I
*I *4639:A I *D sky130_fd_sc_hd__buf_1
*CAP
1 ui_in[4] 0.000293781
2 *4639:A 0
3 *10:15 0.000293781
4 *10:15 *11:15 6.30391e-05
5 *10:15 *226:12 2.11827e-05
6 *9:15 *10:15 6.30391e-05
*RES
1 ui_in[4] *10:15 33.7314 
2 *10:15 *4639:A 23 
*END

*D_NET *11 0.000616934
*CONN
*P ui_in[5] I
*I *4640:A I *D sky130_fd_sc_hd__buf_1
*CAP
1 ui_in[5] 0.000245428
2 *4640:A 0
3 *11:15 0.000245428
4 *11:15 *12:15 6.30391e-05
5 *10:15 *11:15 6.30391e-05
*RES
1 ui_in[5] *11:15 33.5597 
2 *11:15 *4640:A 23 
*END

*D_NET *12 0.000754698
*CONN
*P ui_in[6] I
*I *4641:A I *D sky130_fd_sc_hd__buf_1
*CAP
1 ui_in[6] 0.00031431
2 *4641:A 0
3 *12:15 0.00031431
4 *12:15 *13:15 6.30391e-05
5 *11:15 *12:15 6.30391e-05
*RES
1 ui_in[6] *12:15 33.7314 
2 *12:15 *4641:A 23 
*END

*D_NET *13 0.000755849
*CONN
*P ui_in[7] I
*I *4642:A I *D sky130_fd_sc_hd__buf_1
*CAP
1 ui_in[7] 0.000346405
2 *4642:A 0
3 *13:15 0.000346405
4 *12:15 *13:15 6.30391e-05
*RES
1 ui_in[7] *13:15 33.7314 
2 *13:15 *4642:A 23 
*END

*D_NET *22 0.000479458
*CONN
*P uio_oe[0] O
*I *4655:LO O *D sky130_fd_sc_hd__conb_1
*CAP
1 uio_oe[0] 7.37673e-05
2 *4655:LO 8.21706e-05
3 *22:12 0.000155938
4 uio_oe[0] uio_oe[1] 8.37912e-05
5 uio_oe[0] uio_out[7] 8.37912e-05
*RES
1 *4655:LO *22:12 46.42 
2 *22:12 uio_oe[0] 8.50587 
*END

*D_NET *23 0.000479458
*CONN
*P uio_oe[1] O
*I *4656:LO O *D sky130_fd_sc_hd__conb_1
*CAP
1 uio_oe[1] 7.37673e-05
2 *4656:LO 8.21706e-05
3 *23:12 0.000155938
4 uio_oe[1] uio_oe[2] 8.37912e-05
5 uio_oe[0] uio_oe[1] 8.37912e-05
*RES
1 *4656:LO *23:12 46.42 
2 *23:12 uio_oe[1] 8.50587 
*END

*D_NET *24 0.000479458
*CONN
*P uio_oe[2] O
*I *4657:LO O *D sky130_fd_sc_hd__conb_1
*CAP
1 uio_oe[2] 7.37673e-05
2 *4657:LO 8.21706e-05
3 *24:12 0.000155938
4 uio_oe[2] uio_oe[3] 8.37912e-05
5 uio_oe[1] uio_oe[2] 8.37912e-05
*RES
1 *4657:LO *24:12 46.42 
2 *24:12 uio_oe[2] 8.50587 
*END

*D_NET *25 0.000479458
*CONN
*P uio_oe[3] O
*I *4658:LO O *D sky130_fd_sc_hd__conb_1
*CAP
1 uio_oe[3] 7.37673e-05
2 *4658:LO 8.21706e-05
3 *25:12 0.000155938
4 uio_oe[3] uio_oe[4] 8.37912e-05
5 uio_oe[2] uio_oe[3] 8.37912e-05
*RES
1 *4658:LO *25:12 46.42 
2 *25:12 uio_oe[3] 8.50587 
*END

*D_NET *26 0.000479458
*CONN
*P uio_oe[4] O
*I *4659:LO O *D sky130_fd_sc_hd__conb_1
*CAP
1 uio_oe[4] 7.37673e-05
2 *4659:LO 8.21706e-05
3 *26:12 0.000155938
4 uio_oe[4] uio_oe[5] 8.37912e-05
5 uio_oe[3] uio_oe[4] 8.37912e-05
*RES
1 *4659:LO *26:12 46.42 
2 *26:12 uio_oe[4] 8.50587 
*END

*D_NET *27 0.000479458
*CONN
*P uio_oe[5] O
*I *4660:LO O *D sky130_fd_sc_hd__conb_1
*CAP
1 uio_oe[5] 7.37673e-05
2 *4660:LO 8.21706e-05
3 *27:12 0.000155938
4 uio_oe[5] uio_oe[6] 8.37912e-05
5 uio_oe[4] uio_oe[5] 8.37912e-05
*RES
1 *4660:LO *27:12 46.42 
2 *27:12 uio_oe[5] 8.50587 
*END

*D_NET *28 0.000479458
*CONN
*P uio_oe[6] O
*I *4661:LO O *D sky130_fd_sc_hd__conb_1
*CAP
1 uio_oe[6] 7.37673e-05
2 *4661:LO 8.21706e-05
3 *28:12 0.000155938
4 uio_oe[6] uio_oe[7] 8.37912e-05
5 uio_oe[5] uio_oe[6] 8.37912e-05
*RES
1 *4661:LO *28:12 46.42 
2 *28:12 uio_oe[6] 8.50587 
*END

*D_NET *29 0.000448797
*CONN
*P uio_oe[7] O
*I *4662:LO O *D sky130_fd_sc_hd__conb_1
*CAP
1 uio_oe[7] 0.000100332
2 *4662:LO 8.21706e-05
3 *29:12 0.000182503
4 uio_oe[6] uio_oe[7] 8.37912e-05
*RES
1 *4662:LO *29:12 46.42 
2 *29:12 uio_oe[7] 8.50587 
*END

*D_NET *30 0.000479458
*CONN
*P uio_out[0] O
*I *4663:LO O *D sky130_fd_sc_hd__conb_1
*CAP
1 uio_out[0] 7.37673e-05
2 *4663:LO 8.21706e-05
3 *30:12 0.000155938
4 uio_out[0] uio_out[1] 8.37912e-05
5 uio_out[0] uo_out[7] 8.37912e-05
*RES
1 *4663:LO *30:12 46.42 
2 *30:12 uio_out[0] 8.50587 
*END

*D_NET *31 0.000479458
*CONN
*P uio_out[1] O
*I *4664:LO O *D sky130_fd_sc_hd__conb_1
*CAP
1 uio_out[1] 7.37673e-05
2 *4664:LO 8.21706e-05
3 *31:12 0.000155938
4 uio_out[1] uio_out[2] 8.37912e-05
5 uio_out[0] uio_out[1] 8.37912e-05
*RES
1 *4664:LO *31:12 46.42 
2 *31:12 uio_out[1] 8.50587 
*END

*D_NET *32 0.000479458
*CONN
*P uio_out[2] O
*I *4665:LO O *D sky130_fd_sc_hd__conb_1
*CAP
1 uio_out[2] 7.37673e-05
2 *4665:LO 8.21706e-05
3 *32:12 0.000155938
4 uio_out[2] uio_out[3] 8.37912e-05
5 uio_out[1] uio_out[2] 8.37912e-05
*RES
1 *4665:LO *32:12 46.42 
2 *32:12 uio_out[2] 8.50587 
*END

*D_NET *33 0.000479458
*CONN
*P uio_out[3] O
*I *4666:LO O *D sky130_fd_sc_hd__conb_1
*CAP
1 uio_out[3] 7.37673e-05
2 *4666:LO 8.21706e-05
3 *33:12 0.000155938
4 uio_out[3] uio_out[4] 8.37912e-05
5 uio_out[2] uio_out[3] 8.37912e-05
*RES
1 *4666:LO *33:12 46.42 
2 *33:12 uio_out[3] 8.50587 
*END

*D_NET *34 0.000479458
*CONN
*P uio_out[4] O
*I *4667:LO O *D sky130_fd_sc_hd__conb_1
*CAP
1 uio_out[4] 7.37673e-05
2 *4667:LO 8.21706e-05
3 *34:12 0.000155938
4 uio_out[4] uio_out[5] 8.37912e-05
5 uio_out[3] uio_out[4] 8.37912e-05
*RES
1 *4667:LO *34:12 46.42 
2 *34:12 uio_out[4] 8.50587 
*END

*D_NET *35 0.000479458
*CONN
*P uio_out[5] O
*I *4668:LO O *D sky130_fd_sc_hd__conb_1
*CAP
1 uio_out[5] 7.37673e-05
2 *4668:LO 8.21706e-05
3 *35:12 0.000155938
4 uio_out[5] uio_out[6] 8.37912e-05
5 uio_out[4] uio_out[5] 8.37912e-05
*RES
1 *4668:LO *35:12 46.42 
2 *35:12 uio_out[5] 8.50587 
*END

*D_NET *36 0.000479458
*CONN
*P uio_out[6] O
*I *4669:LO O *D sky130_fd_sc_hd__conb_1
*CAP
1 uio_out[6] 7.37673e-05
2 *4669:LO 8.21706e-05
3 *36:12 0.000155938
4 uio_out[6] uio_out[7] 8.37912e-05
5 uio_out[5] uio_out[6] 8.37912e-05
*RES
1 *4669:LO *36:12 46.42 
2 *36:12 uio_out[6] 8.50587 
*END

*D_NET *37 0.000479458
*CONN
*P uio_out[7] O
*I *4670:LO O *D sky130_fd_sc_hd__conb_1
*CAP
1 uio_out[7] 7.37673e-05
2 *4670:LO 8.21706e-05
3 *37:12 0.000155938
4 uio_oe[0] uio_out[7] 8.37912e-05
5 uio_out[6] uio_out[7] 8.37912e-05
*RES
1 *4670:LO *37:12 46.42 
2 *37:12 uio_out[7] 8.50587 
*END

*D_NET *38 0.000467666
*CONN
*P uo_out[0] O
*I *4654:X O *D sky130_fd_sc_hd__clkbuf_1
*CAP
1 uo_out[0] 0.000108801
2 *4654:X 8.31368e-05
3 *38:12 0.000191938
4 uo_out[0] uo_out[1] 8.37912e-05
*RES
1 *4654:X *38:12 46.42 
2 *38:12 uo_out[0] 8.50587 
*END

*D_NET *39 0.000488284
*CONN
*P uo_out[1] O
*I *4647:X O *D sky130_fd_sc_hd__clkbuf_1
*CAP
1 uo_out[1] 7.37673e-05
2 *4647:X 8.65833e-05
3 *39:12 0.000160351
4 uo_out[1] uo_out[2] 8.37912e-05
5 uo_out[0] uo_out[1] 8.37912e-05
*RES
1 *4647:X *39:12 46.42 
2 *39:12 uo_out[1] 8.50587 
*END

*D_NET *40 0.000488284
*CONN
*P uo_out[2] O
*I *4648:X O *D sky130_fd_sc_hd__clkbuf_1
*CAP
1 uo_out[2] 7.37673e-05
2 *4648:X 8.65833e-05
3 *40:12 0.000160351
4 uo_out[2] uo_out[3] 8.37912e-05
5 uo_out[1] uo_out[2] 8.37912e-05
*RES
1 *4648:X *40:12 46.42 
2 *40:12 uo_out[2] 8.50587 
*END

*D_NET *41 0.000488284
*CONN
*P uo_out[3] O
*I *4649:X O *D sky130_fd_sc_hd__clkbuf_1
*CAP
1 uo_out[3] 7.37673e-05
2 *4649:X 8.65833e-05
3 *41:12 0.000160351
4 uo_out[3] uo_out[4] 8.37912e-05
5 uo_out[2] uo_out[3] 8.37912e-05
*RES
1 *4649:X *41:12 46.42 
2 *41:12 uo_out[3] 8.50587 
*END

*D_NET *42 0.000482926
*CONN
*P uo_out[4] O
*I *4650:X O *D sky130_fd_sc_hd__clkbuf_1
*CAP
1 uo_out[4] 7.37673e-05
2 *4650:X 8.39044e-05
3 *42:12 0.000157672
4 uo_out[4] uo_out[5] 8.37912e-05
5 uo_out[3] uo_out[4] 8.37912e-05
*RES
1 *4650:X *42:12 46.42 
2 *42:12 uo_out[4] 8.50587 
*END

*D_NET *43 0.000472565
*CONN
*P uo_out[5] O
*I *4651:X O *D sky130_fd_sc_hd__clkbuf_1
*CAP
1 uo_out[5] 7.37673e-05
2 *4651:X 7.87241e-05
3 *43:12 0.000152491
4 uo_out[5] uo_out[6] 8.37912e-05
5 uo_out[4] uo_out[5] 8.37912e-05
*RES
1 *4651:X *43:12 46.42 
2 *43:12 uo_out[5] 8.50587 
*END

*D_NET *44 0.000485083
*CONN
*P uo_out[6] O
*I *4652:X O *D sky130_fd_sc_hd__clkbuf_1
*CAP
1 uo_out[6] 7.37673e-05
2 *4652:X 8.4983e-05
3 *44:12 0.00015875
4 uo_out[6] uo_out[7] 8.37912e-05
5 uo_out[5] uo_out[6] 8.37912e-05
*RES
1 *4652:X *44:12 46.42 
2 *44:12 uo_out[6] 8.50587 
*END

*D_NET *45 0.000479458
*CONN
*P uo_out[7] O
*I *4653:X O *D sky130_fd_sc_hd__clkbuf_1
*CAP
1 uo_out[7] 7.37673e-05
2 *4653:X 8.21706e-05
3 *45:12 0.000155938
4 uio_out[0] uo_out[7] 8.37912e-05
5 uo_out[6] uo_out[7] 8.37912e-05
*RES
1 *4653:X *45:12 46.42 
2 *45:12 uo_out[7] 8.50587 
*END

*D_NET *46 0.0017669
*CONN
*I *4602:D I *D sky130_fd_sc_hd__dfrtp_4
*I *4442:Y O *D sky130_fd_sc_hd__inv_1
*CAP
1 *4602:D 0
2 *4442:Y 0.000678726
3 *46:8 0.000678726
4 *46:8 *4442:A 4.46649e-05
5 *46:8 *245:33 0.000364786
*RES
1 *4442:Y *46:8 33.4089 
2 *46:8 *4602:D 23 
*END

*D_NET *47 0.00035194
*CONN
*I *4603:D I *D sky130_fd_sc_hd__dfrtp_4
*I *4580:X O *D sky130_fd_sc_hd__xor2_1
*CAP
1 *4603:D 8.87489e-05
2 *4580:X 8.87489e-05
3 *4603:D *4580:A 0.00010018
4 *4603:D *200:16 7.42621e-05
*RES
1 *4580:X *4603:D 48.5271 
*END

*D_NET *48 0.000648877
*CONN
*I *4604:D I *D sky130_fd_sc_hd__dfrtp_1
*I *4583:Y O *D sky130_fd_sc_hd__nor2_1
*CAP
1 *4604:D 0
2 *4583:Y 0.00024921
3 *48:10 0.00024921
4 *48:10 *4583:B 5.67058e-05
5 *48:10 *226:12 3.56537e-05
6 *48:10 *243:12 5.80963e-05
*RES
1 *4583:Y *48:10 42.0807 
2 *48:10 *4604:D 38 
*END

*D_NET *49 0.000529817
*CONN
*I *4605:D I *D sky130_fd_sc_hd__dfrtp_4
*I *4586:Y O *D sky130_fd_sc_hd__nor2_1
*CAP
1 *4605:D 0
2 *4586:Y 0.000253394
3 *49:10 0.000253394
4 *49:10 *4586:A 2.30292e-05
5 *49:10 *138:10 0
6 *5:13 *49:10 0
*RES
1 *4586:Y *49:10 41.6043 
2 *49:10 *4605:D 38 
*END

*D_NET *50 0.000523065
*CONN
*I *4606:D I *D sky130_fd_sc_hd__dfrtp_4
*I *4587:X O *D sky130_fd_sc_hd__xor2_1
*CAP
1 *4606:D 0
2 *4587:X 0.000190608
3 *50:10 0.000190608
4 *50:10 *4587:A 5.67058e-05
5 *50:10 *208:10 0
6 *50:10 *248:10 8.51432e-05
7 *5:13 *50:10 0
*RES
1 *4587:X *50:10 42.1843 
2 *50:10 *4606:D 38 
*END

*D_NET *51 0.000661084
*CONN
*I *4607:D I *D sky130_fd_sc_hd__dfrtp_4
*I *4590:Y O *D sky130_fd_sc_hd__nor2_1
*CAP
1 *4607:D 0
2 *4590:Y 0.000241765
3 *51:10 0.000241765
4 *51:10 *139:8 1.58805e-05
5 *51:10 *139:12 5.3304e-05
6 *51:10 *139:28 5.50049e-05
7 *51:10 *208:10 5.3365e-05
8 *5:13 *51:10 0
*RES
1 *4590:Y *51:10 42.6607 
2 *51:10 *4607:D 38 
*END

*D_NET *52 0.00139946
*CONN
*I *4608:D I *D sky130_fd_sc_hd__dfrtp_1
*I *4593:X O *D sky130_fd_sc_hd__and2_1
*CAP
1 *4608:D 0
2 *4593:X 0.000621802
3 *52:8 0.000621802
4 *52:8 *4593:B 6.17437e-06
5 *52:8 *4609:CLK 0.00014968
*RES
1 *4593:X *52:8 32.2179 
2 *52:8 *4608:D 23 
*END

*D_NET *53 0.000567791
*CONN
*I *4609:D I *D sky130_fd_sc_hd__dfrtp_1
*I *4594:Y O *D sky130_fd_sc_hd__xnor2_1
*CAP
1 *4609:D 8.47031e-05
2 *4594:Y 7.5314e-05
3 *53:8 0.000160017
4 *4609:D *4609:RESET_B 0.000103647
5 *53:8 *244:10 0.00014411
*RES
1 *4594:Y *53:8 39.9057 
2 *53:8 *4609:D 40.0507 
*END

*D_NET *54 0.0072069
*CONN
*I *4487:A1 I *D sky130_fd_sc_hd__o21a_1
*I *4602:RESET_B I *D sky130_fd_sc_hd__dfrtp_4
*I *4461:A1 I *D sky130_fd_sc_hd__o21ai_4
*I *4501:A1 I *D sky130_fd_sc_hd__o21ai_4
*I *4486:A1 I *D sky130_fd_sc_hd__o21ai_4
*I *4441:Y O *D sky130_fd_sc_hd__inv_6
*CAP
1 *4487:A1 0
2 *4602:RESET_B 0.000298762
3 *4461:A1 8.24195e-05
4 *4501:A1 0
5 *4486:A1 0.000403997
6 *4441:Y 0
7 *54:65 0.000365515
8 *54:33 0.000592028
9 *54:25 0.00125745
10 *54:10 0.000946814
11 *54:6 0.000624091
12 *4486:A1 *185:12 0.00010018
13 *4602:RESET_B *4452:S 0
14 *4602:RESET_B *241:37 0
15 *4602:RESET_B *251:12 0
16 *4602:RESET_B *252:10 0.000187895
17 *54:10 *241:37 0
18 *54:10 *252:10 0.000205897
19 *54:25 *162:8 0.000169683
20 *54:25 *185:12 0.000846981
21 *54:25 *233:12 0.000319116
22 *54:25 *243:12 0
23 *54:33 *185:12 0
24 *54:33 *252:10 0.000201464
25 *54:65 *4486:B1 0
26 *54:65 *4487:A2 0.000506285
27 *54:65 *4487:B1 6.84574e-05
28 *54:65 *185:12 2.98648e-05
*RES
1 *4441:Y *54:6 38 
2 *54:6 *54:10 22.8921 
3 *54:10 *4486:A1 24.0979 
4 *54:10 *54:25 47.2757 
5 *54:25 *54:33 41.165 
6 *54:33 *4501:A1 23 
7 *54:25 *4461:A1 24.0979 
8 *54:6 *4602:RESET_B 22.1879 
9 *4486:A1 *54:65 31.7829 
10 *54:65 *4487:A1 23 
*END

*D_NET *55 0.000808323
*CONN
*I *4603:RESET_B I *D sky130_fd_sc_hd__dfrtp_4
*I *4595:Y O *D sky130_fd_sc_hd__inv_1
*CAP
1 *4603:RESET_B 0
2 *4595:Y 0.000136134
3 *55:10 0.000136134
4 *55:10 *225:50 0.000319305
5 *55:10 *247:10 3.7285e-05
6 *5:13 *55:10 0.000179465
*RES
1 *4595:Y *55:10 42.1739 
2 *55:10 *4603:RESET_B 15 
*END

*D_NET *56 0.000511383
*CONN
*I *4604:RESET_B I *D sky130_fd_sc_hd__dfrtp_1
*I *4596:Y O *D sky130_fd_sc_hd__inv_1
*CAP
1 *4604:RESET_B 0
2 *4596:Y 0.000102573
3 *56:10 0.000102573
4 *56:10 *4443:A1 0.000114083
5 *56:10 *4583:B 7.58407e-05
6 *56:10 *249:14 0.000116314
*RES
1 *4596:Y *56:10 40.4132 
2 *56:10 *4604:RESET_B 15 
*END

*D_NET *57 0.000283892
*CONN
*I *4605:RESET_B I *D sky130_fd_sc_hd__dfrtp_4
*I *4597:Y O *D sky130_fd_sc_hd__inv_1
*CAP
1 *4605:RESET_B 0
2 *4597:Y 0.000114652
3 *57:10 0.000114652
4 *57:10 *225:50 5.45887e-05
*RES
1 *4597:Y *57:10 39.9368 
2 *57:10 *4605:RESET_B 15 
*END

*D_NET *58 0.000311471
*CONN
*I *4606:RESET_B I *D sky130_fd_sc_hd__dfrtp_4
*I *4598:Y O *D sky130_fd_sc_hd__inv_1
*CAP
1 *4606:RESET_B 0
2 *4598:Y 9.75783e-05
3 *58:10 9.75783e-05
4 *58:10 *225:35 0.000116314
*RES
1 *4598:Y *58:10 39.9368 
2 *58:10 *4606:RESET_B 15 
*END

*D_NET *59 0.000704712
*CONN
*I *4607:RESET_B I *D sky130_fd_sc_hd__dfrtp_4
*I *4599:Y O *D sky130_fd_sc_hd__inv_1
*CAP
1 *4607:RESET_B 0
2 *4599:Y 0.000133447
3 *59:10 0.000133447
4 *59:10 *4599:A 7.84431e-05
5 *59:10 *225:22 0.000227497
6 *5:13 *59:10 0.000131878
*RES
1 *4599:Y *59:10 42.6504 
2 *59:10 *4607:RESET_B 15 
*END

*D_NET *60 0.000287461
*CONN
*I *4608:RESET_B I *D sky130_fd_sc_hd__dfrtp_1
*I *4600:Y O *D sky130_fd_sc_hd__inv_1
*CAP
1 *4608:RESET_B 0
2 *4600:Y 0.000138229
3 *60:10 0.000138229
4 *60:10 *205:8 0
5 *60:10 *242:20 1.10036e-05
*RES
1 *4600:Y *60:10 39.9368 
2 *60:10 *4608:RESET_B 15 
*END

*D_NET *61 0.000609714
*CONN
*I *4609:RESET_B I *D sky130_fd_sc_hd__dfrtp_1
*I *4601:Y O *D sky130_fd_sc_hd__inv_1
*CAP
1 *4609:RESET_B 0.000237105
2 *4601:Y 0.000237105
3 *4609:RESET_B *4609:CLK 3.18571e-05
4 *4609:D *4609:RESET_B 0.000103647
*RES
1 *4601:Y *4609:RESET_B 27.5986 
*END

*D_NET *62 0.00137108
*CONN
*I *4508:B1 I *D sky130_fd_sc_hd__a32o_1
*I *4499:X O *D sky130_fd_sc_hd__a2bb2o_1
*CAP
1 *4508:B1 0.000139497
2 *4499:X 0.000349292
3 *62:8 0.000488789
4 *4508:B1 *69:27 2.68118e-05
5 *4508:B1 *170:46 9.58714e-05
6 *62:8 *69:33 0.000138708
7 *62:8 *70:8 2.29192e-05
8 *62:8 *81:12 0.00010919
9 *62:8 *215:16 0
*RES
1 *4499:X *62:8 44.8357 
2 *62:8 *4508:B1 40.3511 
*END

*D_NET *63 0.00204167
*CONN
*I *4501:B1 I *D sky130_fd_sc_hd__o21ai_4
*I *4500:X O *D sky130_fd_sc_hd__or2_4
*CAP
1 *4501:B1 0.000327618
2 *4500:X 0.000546343
3 *63:8 0.000873961
4 *4501:B1 *4501:A2 0.000156058
5 *4501:B1 *143:16 0.000137686
6 *63:8 *185:12 0
7 *63:8 *242:52 0
*RES
1 *4500:X *63:8 48.005 
2 *63:8 *4501:B1 45.3121 
*END

*D_NET *64 0.0257296
*CONN
*I *4520:B2 I *D sky130_fd_sc_hd__a22o_1
*I *4535:B2 I *D sky130_fd_sc_hd__a32o_1
*I *4561:B2 I *D sky130_fd_sc_hd__a32o_1
*I *4549:A1 I *D sky130_fd_sc_hd__a21o_1
*I *4566:A1 I *D sky130_fd_sc_hd__a21bo_1
*I *4503:A I *D sky130_fd_sc_hd__nor2_2
*I *4579:A1 I *D sky130_fd_sc_hd__mux2_4
*I *4508:B2 I *D sky130_fd_sc_hd__a32o_1
*I *4501:Y O *D sky130_fd_sc_hd__o21ai_4
*CAP
1 *4520:B2 0
2 *4535:B2 0
3 *4561:B2 0
4 *4549:A1 0
5 *4566:A1 0
6 *4503:A 0
7 *4579:A1 7.75474e-05
8 *4508:B2 0
9 *4501:Y 3.79513e-05
10 *64:126 0.000189589
11 *64:96 0.000465274
12 *64:71 0.00131555
13 *64:63 0.000920546
14 *64:57 0.00135787
15 *64:51 0.00217582
16 *64:45 0.00118206
17 *64:41 0.00107044
18 *64:28 0.000789879
19 *64:24 0.00147488
20 *64:16 0.00271957
21 *64:8 0.00140795
22 *4579:A1 *133:8 0.000423053
23 *4579:A1 *134:8 0.000361027
24 *64:8 *143:16 9.84851e-05
25 *64:16 *4444:B 0
26 *64:16 *144:8 0
27 *64:16 *144:10 0
28 *64:16 *186:8 0.000110922
29 *64:16 *200:37 0.000302348
30 *64:16 *221:20 0.000144455
31 *64:16 *241:37 0
32 *64:16 *251:12 0
33 *64:24 *4470:A 0.000407438
34 *64:24 *4470:B 3.22879e-05
35 *64:24 *4507:A 0.000901871
36 *64:24 *4507:B 6.51763e-05
37 *64:24 *176:27 6.99589e-05
38 *64:24 *195:14 0.000981052
39 *64:24 *211:8 0.00070452
40 *64:24 *230:20 9.84851e-05
41 *64:24 *232:46 9.30151e-05
42 *64:28 *4536:B 0
43 *64:28 *176:27 0
44 *64:28 *182:16 0.000193379
45 *64:41 *4536:A 4.67444e-05
46 *64:41 *4561:A1 2.13733e-05
47 *64:41 *69:8 0
48 *64:41 *69:27 0.000342333
49 *64:41 *150:45 1.21972e-05
50 *64:41 *182:16 6.16439e-05
51 *64:41 *214:10 0.000708823
52 *64:41 *217:28 0.000443673
53 *64:41 *240:51 0.000236532
54 *64:45 *4561:A1 1.32939e-05
55 *64:45 *4561:A3 2.93747e-05
56 *64:45 *4561:B1 2.64836e-05
57 *64:45 *150:45 2.9853e-05
58 *64:45 *214:10 1.32314e-05
59 *64:51 *4561:B1 0.000359332
60 *64:57 *107:12 0.00025307
61 *64:57 *213:10 0
62 *64:71 *104:14 2.76611e-06
63 *64:71 *122:10 4.83778e-05
64 *64:71 *234:128 0
65 *64:96 *4578:A 7.84487e-05
66 *64:96 *4578:B 0.000616757
67 *64:96 *66:10 9.84794e-05
68 *64:96 *104:14 2.25399e-05
69 *64:96 *128:26 0.000122581
70 *64:96 *130:10 4.21378e-05
71 *64:96 *133:8 6.93882e-05
72 *64:96 *134:8 6.68617e-05
73 *64:96 *163:30 7.51453e-06
74 *64:96 *163:43 2.46906e-05
75 *64:96 *177:14 0.000179473
76 *64:96 *177:26 0.000158796
77 *64:96 *238:36 7.9713e-05
78 *64:96 *238:40 0.000479713
79 *64:126 *67:21 0.000424311
80 *64:126 *67:38 3.70187e-05
81 *64:126 *150:45 0.000399677
*RES
1 *4501:Y *64:8 39.0979 
2 *64:8 *64:16 42.4568 
3 *64:16 *64:24 38.2075 
4 *64:24 *64:28 17.61 
5 *64:28 *4508:B2 38 
6 *64:28 *64:41 35.5279 
7 *64:41 *64:45 4.32929 
8 *64:45 *64:51 34.43 
9 *64:51 *64:57 37.5164 
10 *64:57 *64:63 32.61 
11 *64:63 *64:71 44.5414 
12 *64:71 *4579:A1 27.93 
13 *64:71 *64:96 45.3493 
14 *64:96 *4503:A 23 
15 *64:63 *4566:A1 23 
16 *64:51 *4549:A1 38 
17 *64:45 *4561:B2 23 
18 *64:41 *64:126 36.6286 
19 *64:126 *4535:B2 23 
20 *64:24 *4520:B2 23 
*END

*D_NET *65 0.0071757
*CONN
*I *4555:B1 I *D sky130_fd_sc_hd__a21oi_1
*I *4503:B I *D sky130_fd_sc_hd__nor2_2
*I *4569:B1 I *D sky130_fd_sc_hd__a31oi_1
*I *4502:Y O *D sky130_fd_sc_hd__nand2_2
*CAP
1 *4555:B1 0.00134731
2 *4503:B 0
3 *4569:B1 0
4 *4502:Y 0
5 *65:36 0.00143966
6 *65:25 0.000204083
7 *65:14 0.000245099
8 *65:6 0.000499644
9 *65:4 0.000142815
10 *4555:B1 *4570:A1 5.3304e-05
11 *4555:B1 *4572:C1 0.000701912
12 *4555:B1 *112:8 1.37232e-05
13 *4555:B1 *113:10 3.22879e-05
14 *4555:B1 *126:10 3.3577e-05
15 *4555:B1 *173:133 0.000180218
16 *65:6 *158:16 0.000126114
17 *65:6 *164:19 7.15126e-05
18 *65:14 *124:10 0
19 *65:14 *128:12 6.15872e-05
20 *65:14 *158:16 0.000269093
21 *65:14 *163:20 5.30871e-05
22 *65:14 *164:19 0.000141191
23 *65:14 *234:114 1.44813e-05
24 *65:25 *105:31 0.000567659
25 *65:25 *161:104 3.72639e-05
26 *65:25 *177:10 0.000642492
27 *65:36 *161:104 0.000108661
28 *65:36 *230:91 0.000188926
*RES
1 *4502:Y *65:4 23 
2 *65:4 *65:6 1.57429 
3 *65:6 *65:14 35.9657 
4 *65:14 *4569:B1 23 
5 *65:6 *65:25 38.5964 
6 *65:25 *4503:B 23 
7 *65:4 *65:36 32.61 
8 *65:36 *4555:B1 49.8457 
*END

*D_NET *66 0.0108782
*CONN
*I *4504:B I *D sky130_fd_sc_hd__and2_4
*I *4565:D_N I *D sky130_fd_sc_hd__or4b_1
*I *4578:B I *D sky130_fd_sc_hd__and3_1
*I *4503:Y O *D sky130_fd_sc_hd__nor2_2
*CAP
1 *4504:B 0.000736703
2 *4565:D_N 0.000195856
3 *4578:B 0.000767107
4 *4503:Y 0.000114143
5 *66:38 0.00154887
6 *66:23 0.00128998
7 *66:10 0.00116321
8 *4504:B *4564:B1 0.000313249
9 *4504:B *120:8 0.000720316
10 *4565:D_N *194:23 0.000360216
11 *4578:B *4576:C1 6.17437e-06
12 *4578:B *177:26 0.000231581
13 *4578:B *177:35 5.61255e-06
14 *4578:B *238:40 1.41129e-05
15 *66:10 *105:31 0.000111852
16 *66:10 *130:10 5.67058e-05
17 *66:10 *161:104 0.000105159
18 *66:10 *238:36 2.36269e-05
19 *66:23 *4564:A2_N 0.000139657
20 *66:23 *105:31 0.000521176
21 *66:23 *129:10 0.000187986
22 *66:23 *161:86 0.000117775
23 *66:23 *161:104 1.22906e-05
24 *66:23 *194:23 6.88819e-05
25 *66:38 *4548:A1 6.48142e-05
26 *66:38 *167:56 0.000490218
27 *66:38 *173:154 0.000271401
28 *66:38 *186:53 0.000182832
29 *66:38 *188:41 0.000201176
30 *66:38 *194:23 0.000140259
31 *64:96 *4578:B 0.000616757
32 *64:96 *66:10 9.84794e-05
*RES
1 *4503:Y *66:10 41.1279 
2 *66:10 *4578:B 48.6264 
3 *66:10 *66:23 23.9486 
4 *66:23 *4565:D_N 26.9564 
5 *66:23 *66:38 49.0571 
6 *66:38 *4504:B 40.7729 
*END

*D_NET *67 0.00408435
*CONN
*I *4506:C I *D sky130_fd_sc_hd__and3_4
*I *4561:A3 I *D sky130_fd_sc_hd__a32o_1
*I *4535:A2 I *D sky130_fd_sc_hd__a32o_1
*I *4504:X O *D sky130_fd_sc_hd__and2_4
*CAP
1 *4506:C 0
2 *4561:A3 1.80505e-05
3 *4535:A2 0.000227139
4 *4504:X 5.22191e-05
5 *67:38 0.000966744
6 *67:21 0.00125568
7 *67:8 0.000550248
8 *4535:A2 *4535:A3 6.65812e-05
9 *4535:A2 *4535:B1 2.39868e-05
10 *4561:A3 *150:45 5.50049e-05
11 *67:8 *94:42 5.80963e-05
12 *67:8 *150:45 5.561e-05
13 *67:21 *94:42 2.70366e-05
14 *67:21 *150:45 2.70469e-05
15 *67:38 *4506:B 3.22879e-05
16 *67:38 *240:51 0.000177909
17 *64:45 *4561:A3 2.93747e-05
18 *64:126 *67:21 0.000424311
19 *64:126 *67:38 3.70187e-05
*RES
1 *4504:X *67:8 39.5536 
2 *67:8 *4535:A2 41.0243 
3 *67:8 *67:21 6.48357 
4 *67:21 *4561:A3 38.6214 
5 *67:21 *67:38 33.85 
6 *67:38 *4506:C 23 
*END

*D_NET *68 0.000710305
*CONN
*I *4542:C1 I *D sky130_fd_sc_hd__o311a_1
*I *4571:A2 I *D sky130_fd_sc_hd__o211a_1
*I *4505:Y O *D sky130_fd_sc_hd__nand2_1
*CAP
1 *4542:C1 4.67524e-05
2 *4571:A2 8.0814e-05
3 *4505:Y 6.31443e-05
4 *68:10 0.000127566
5 *68:8 6.31443e-05
6 *4542:C1 *4542:B1 7.52623e-05
7 *4542:C1 *154:42 4.96717e-05
8 *4571:A2 *154:42 6.26408e-05
9 *68:8 *4542:B1 3.70094e-05
10 *68:8 *173:110 7.03766e-05
11 *68:8 *229:92 3.39231e-05
*RES
1 *4505:Y *68:8 39.9057 
2 *68:8 *68:10 15 
3 *68:10 *4571:A2 24.595 
4 *68:10 *4542:C1 24.595 
*END

*D_NET *69 0.0018125
*CONN
*I *4508:A2 I *D sky130_fd_sc_hd__a32o_1
*I *4520:A2 I *D sky130_fd_sc_hd__a22o_1
*I *4536:C I *D sky130_fd_sc_hd__and3_4
*I *4506:X O *D sky130_fd_sc_hd__and3_4
*CAP
1 *4508:A2 0
2 *4520:A2 0
3 *4536:C 0
4 *4506:X 0.000146419
5 *69:33 0.000109153
6 *69:27 0.000350242
7 *69:10 0.000241089
8 *69:8 0.000146419
9 *69:8 *4506:B 0
10 *69:27 *4536:A 6.22095e-05
11 *69:27 *170:46 2.93747e-05
12 *69:27 *182:8 0.00014196
13 *69:27 *217:28 1.41129e-05
14 *69:33 *70:8 0
15 *69:33 *81:12 6.07611e-06
16 *69:33 *182:16 5.75972e-05
17 *4508:B1 *69:27 2.68118e-05
18 *62:8 *69:33 0.000138708
19 *64:41 *69:8 0
20 *64:41 *69:27 0.000342333
*RES
1 *4506:X *69:8 40.2579 
2 *69:8 *69:10 15 
3 *69:10 *4536:C 23 
4 *69:10 *69:27 7.11018 
5 *69:27 *69:33 32.61 
6 *69:33 *4520:A2 23 
7 *69:27 *4508:A2 23 
*END

*D_NET *70 0.000547668
*CONN
*I *4508:A3 I *D sky130_fd_sc_hd__a32o_1
*I *4507:Y O *D sky130_fd_sc_hd__nand2_1
*CAP
1 *4508:A3 3.08984e-05
2 *4507:Y 0.000121058
3 *70:8 0.000151956
4 *4508:A3 *170:46 0.000141954
5 *4508:A3 *182:8 7.88828e-05
6 *70:8 *215:16 0
7 *62:8 *70:8 2.29192e-05
8 *69:33 *70:8 0
*RES
1 *4507:Y *70:8 39.9057 
2 *70:8 *4508:A3 39.5743 
*END

*D_NET *71 0.00265205
*CONN
*I *4512:A3 I *D sky130_fd_sc_hd__o32a_1
*I *4509:X O *D sky130_fd_sc_hd__and3_1
*CAP
1 *4512:A3 0.000391573
2 *4509:X 0.000522193
3 *71:10 0.000913766
4 *4512:A3 *143:33 0.000518726
5 *71:10 *153:10 9.32613e-05
6 *71:10 *170:18 0.000187129
7 *71:10 *171:8 2.54046e-05
8 *71:10 *222:10 0
*RES
1 *4509:X *71:10 46.4514 
2 *71:10 *4512:A3 44.8564 
*END

*D_NET *72 0.000491019
*CONN
*I *4512:B1 I *D sky130_fd_sc_hd__o32a_1
*I *4510:Y O *D sky130_fd_sc_hd__a21oi_1
*CAP
1 *4512:B1 5.47773e-05
2 *4510:Y 5.47773e-05
3 *4512:B1 *4510:A1 6.56843e-05
4 *4512:B1 *4510:A2 8.2229e-05
5 *4512:B1 *143:33 0.000233551
*RES
1 *4510:Y *4512:B1 48.6463 
*END

*D_NET *73 0.000928994
*CONN
*I *4512:B2 I *D sky130_fd_sc_hd__o32a_1
*I *4511:Y O *D sky130_fd_sc_hd__o31ai_1
*CAP
1 *4512:B2 0
2 *4511:Y 0.000301087
3 *73:10 0.000301087
4 *73:10 *167:75 6.33614e-05
5 *73:10 *173:30 4.75206e-05
6 *73:10 *193:61 6.33614e-05
7 *73:10 *227:16 0.000139346
8 *73:10 *227:22 1.32314e-05
*RES
1 *4511:Y *73:10 42.9093 
2 *73:10 *4512:B2 38 
*END

*D_NET *74 0.000804859
*CONN
*I *4514:A2_N I *D sky130_fd_sc_hd__a2bb2o_1
*I *4512:X O *D sky130_fd_sc_hd__o32a_1
*CAP
1 *4514:A2_N 0
2 *4512:X 0.000121137
3 *74:8 0.000121137
4 *74:8 *4510:A2 0.000133912
5 *74:8 *143:33 0.000399297
6 *74:8 *173:61 2.93747e-05
*RES
1 *4512:X *74:8 27.93 
2 *74:8 *4514:A2_N 23 
*END

*D_NET *75 0.00165667
*CONN
*I *4514:B1 I *D sky130_fd_sc_hd__a2bb2o_1
*I *4513:X O *D sky130_fd_sc_hd__o22a_1
*CAP
1 *4514:B1 0
2 *4513:X 0.000557318
3 *75:10 0.000557318
4 *75:10 *4511:A1 0.000207219
5 *75:10 *149:14 0
6 *75:10 *167:20 0.000128391
7 *75:10 *173:30 0
8 *75:10 *173:49 4.03062e-05
9 *75:10 *173:166 2.76611e-06
10 *75:10 *230:56 0.000163352
11 *75:10 *232:37 0
*RES
1 *4513:X *75:10 47.715 
2 *75:10 *4514:B1 38 
*END

*D_NET *76 0.00270677
*CONN
*I *4519:B1 I *D sky130_fd_sc_hd__a32o_1
*I *4514:X O *D sky130_fd_sc_hd__a2bb2o_1
*CAP
1 *4519:B1 0.000331736
2 *4514:X 0.000279271
3 *76:8 0.000611007
4 *4519:B1 *4519:A2 0.000121918
5 *4519:B1 *77:23 5.10805e-05
6 *4519:B1 *161:29 0.000140768
7 *4519:B1 *168:51 5.3304e-05
8 *76:8 *168:51 0.00074645
9 *76:8 *174:34 0.000371239
*RES
1 *4514:X *76:8 48.005 
2 *76:8 *4519:B1 45.0532 
*END

*D_NET *77 0.0106503
*CONN
*I *4557:B1 I *D sky130_fd_sc_hd__o21ai_1
*I *4547:A2 I *D sky130_fd_sc_hd__a211o_1
*I *4516:C_N I *D sky130_fd_sc_hd__or3b_1
*I *4515:X O *D sky130_fd_sc_hd__a22o_4
*CAP
1 *4557:B1 2.34823e-05
2 *4547:A2 0
3 *4516:C_N 4.75692e-05
4 *4515:X 0.000522956
5 *77:31 0.000641465
6 *77:23 0.00195031
7 *77:10 0.00147283
8 *77:6 0.000662848
9 *4516:C_N *4519:B2 0
10 *4516:C_N *161:20 4.21594e-06
11 *4516:C_N *168:51 0
12 *4516:C_N *174:34 0
13 *77:6 *4475:A 0.000438462
14 *77:6 *4475:B 5.50106e-05
15 *77:6 *4515:B1 6.91235e-05
16 *77:6 *175:8 0.00026338
17 *77:6 *186:12 1.22822e-05
18 *77:10 *174:34 0
19 *77:10 *186:16 0
20 *77:23 *4516:B 0.000271476
21 *77:23 *4529:A2 0.000185434
22 *77:23 *81:8 9.5877e-05
23 *77:23 *87:12 0.000786258
24 *77:23 *115:10 5.50049e-05
25 *77:23 *161:29 0.00184187
26 *77:23 *161:31 0.000228903
27 *77:23 *161:35 5.50106e-05
28 *77:23 *166:16 0.000207726
29 *77:31 *4547:A1 7.81073e-05
30 *77:31 *4548:A1 0.000111923
31 *77:31 *107:12 0
32 *77:31 *115:10 0.000271476
33 *77:31 *186:57 0.000191166
34 *77:31 *186:61 5.50049e-05
35 *4519:B1 *77:23 5.10805e-05
*RES
1 *4515:X *77:6 35.0557 
2 *77:6 *77:10 17.2579 
3 *77:10 *4516:C_N 38.8493 
4 *77:10 *77:23 48.9714 
5 *77:23 *77:31 43.2364 
6 *77:31 *4547:A2 23 
7 *77:23 *4557:B1 23.4971 
*END

*D_NET *78 0.000524385
*CONN
*I *4519:A2 I *D sky130_fd_sc_hd__a32o_1
*I *4516:X O *D sky130_fd_sc_hd__or3b_1
*CAP
1 *4519:A2 0.000180938
2 *4516:X 0.000180938
3 *4519:A2 *161:29 4.05913e-05
4 *4519:B1 *4519:A2 0.000121918
*RES
1 *4516:X *4519:A2 49.0243 
*END

*D_NET *79 0.000665644
*CONN
*I *4518:B1 I *D sky130_fd_sc_hd__a211o_1
*I *4517:Y O *D sky130_fd_sc_hd__nor2_1
*CAP
1 *4518:B1 0.00015642
2 *4517:Y 0.00015642
3 *4518:B1 *4518:A1 5.0948e-05
4 *4518:B1 *4518:A2 0.00014196
5 *4518:B1 *4518:C1 3.91386e-05
6 *4518:B1 *180:10 2.65879e-05
7 *4518:B1 *193:39 9.41704e-05
*RES
1 *4517:Y *4518:B1 49.9771 
*END

*D_NET *80 0.000947003
*CONN
*I *4519:A3 I *D sky130_fd_sc_hd__a32o_1
*I *4518:X O *D sky130_fd_sc_hd__a211o_1
*CAP
1 *4519:A3 0
2 *4518:X 0.000116906
3 *80:8 0.000116906
4 *80:8 *4478:B1 0.000179312
5 *80:8 *177:69 0.00018003
6 *80:8 *180:10 0.000353849
*RES
1 *4518:X *80:8 42.7229 
2 *80:8 *4519:A3 38 
*END

*D_NET *81 0.00251477
*CONN
*I *4520:B1 I *D sky130_fd_sc_hd__a22o_1
*I *4519:X O *D sky130_fd_sc_hd__a32o_1
*CAP
1 *4520:B1 0
2 *4519:X 8.40509e-05
3 *81:12 0.000514233
4 *81:8 0.000598284
5 *81:12 *4478:B1 0.000161121
6 *81:12 *4516:B 1.22803e-05
7 *81:12 *180:10 0.000110922
8 *81:12 *182:16 0.000347123
9 *81:12 *182:20 8.22585e-05
10 *81:12 *183:10 3.26321e-05
11 *81:12 *184:10 0.000348447
12 *81:12 *187:14 1.22803e-05
13 *62:8 *81:12 0.00010919
14 *69:33 *81:12 6.07611e-06
15 *77:23 *81:8 9.5877e-05
*RES
1 *4519:X *81:8 39.0979 
2 *81:8 *81:12 28.5264 
3 *81:12 *4520:B1 23 
*END

*D_NET *82 0.000571474
*CONN
*I *4526:A I *D sky130_fd_sc_hd__or3b_1
*I *4521:X O *D sky130_fd_sc_hd__o2111a_1
*CAP
1 *4526:A 0
2 *4521:X 0.000158689
3 *82:10 0.000158689
4 *82:10 *87:12 2.79004e-05
5 *82:10 *155:20 9.41704e-05
6 *82:10 *195:30 0
7 *82:10 *234:16 0.000132025
*RES
1 *4521:X *82:10 41.0036 
2 *82:10 *4526:A 38 
*END

*D_NET *83 0.00704836
*CONN
*I *4523:C I *D sky130_fd_sc_hd__or3_1
*I *4529:A1 I *D sky130_fd_sc_hd__o21ai_1
*I *4522:X O *D sky130_fd_sc_hd__and3b_1
*CAP
1 *4523:C 2.81266e-05
2 *4529:A1 0
3 *4522:X 0.000539178
4 *83:22 0.000806599
5 *83:16 0.00103673
6 *83:12 0.00074118
7 *4523:C *149:28 1.94812e-05
8 *83:12 *4522:B 5.3304e-05
9 *83:12 *4540:C1 0.000263955
10 *83:12 *234:20 0.000431545
11 *83:16 *97:10 8.62876e-05
12 *83:16 *161:58 9.03979e-05
13 *83:16 *194:46 0
14 *83:16 *237:16 2.01531e-05
15 *83:22 *4527:B1 0.000177303
16 *83:22 *89:10 3.96156e-05
17 *83:22 *110:16 0.000139647
18 *83:22 *149:28 9.87414e-05
19 *83:22 *157:36 0.000248979
20 *83:22 *157:47 0.000456477
21 *83:22 *157:68 6.7177e-06
22 *83:22 *161:39 0.000109095
23 *83:22 *163:69 0.000138438
24 *83:22 *173:77 0.000136486
25 *83:22 *194:46 0.000667155
26 *83:22 *194:54 0.00028316
27 *83:22 *238:10 0.000429611
*RES
1 *4522:X *83:12 46.8864 
2 *83:12 *83:16 18.6664 
3 *83:16 *83:22 40.6857 
4 *83:22 *4529:A1 38 
5 *83:16 *4523:C 23.6214 
*END

*D_NET *84 0.00144985
*CONN
*I *4524:C1 I *D sky130_fd_sc_hd__o211a_1
*I *4523:X O *D sky130_fd_sc_hd__or3_1
*CAP
1 *4524:C1 0.000233228
2 *4523:X 0.000114656
3 *84:8 0.000347884
4 *4524:C1 *167:26 0.000618478
5 *4524:C1 *179:57 5.50049e-05
6 *84:8 *237:10 8.06039e-05
*RES
1 *4523:X *84:8 40.2579 
2 *84:8 *4524:C1 44.815 
*END

*D_NET *85 0.000565493
*CONN
*I *4526:B I *D sky130_fd_sc_hd__or3b_1
*I *4524:X O *D sky130_fd_sc_hd__o211a_1
*CAP
1 *4526:B 0
2 *4524:X 0.000118846
3 *85:8 0.000118846
4 *85:8 *163:83 0.000106609
5 *85:8 *234:16 0.000221193
*RES
1 *4524:X *85:8 40.9621 
2 *85:8 *4526:B 38 
*END

*D_NET *86 0.00163515
*CONN
*I *4526:C_N I *D sky130_fd_sc_hd__or3b_1
*I *4525:X O *D sky130_fd_sc_hd__a2111o_1
*CAP
1 *4526:C_N 0
2 *4525:X 0.000266964
3 *86:6 0.000266964
4 *86:6 *181:46 0.000785362
5 *86:6 *219:42 0.000315857
*RES
1 *4525:X *86:6 31.7207 
2 *86:6 *4526:C_N 23 
*END

*D_NET *87 0.00504923
*CONN
*I *4532:A2 I *D sky130_fd_sc_hd__a22o_1
*I *4526:X O *D sky130_fd_sc_hd__or3b_1
*CAP
1 *4532:A2 0
2 *4526:X 0
3 *87:18 0.000123585
4 *87:12 0.00138296
5 *87:6 0.00125937
6 *87:12 *91:8 7.95478e-05
7 *87:12 *157:72 0.000135682
8 *87:12 *169:50 0.000504537
9 *87:12 *195:30 0.000115299
10 *87:12 *219:67 0
11 *87:12 *227:30 0.000555954
12 *87:12 *234:16 0
13 *87:18 *92:8 7.8128e-05
14 *87:18 *150:32 0
15 *87:18 *150:45 0
16 *87:18 *161:80 0
17 *77:23 *87:12 0.000786258
18 *82:10 *87:12 2.79004e-05
*RES
1 *4526:X *87:6 38 
2 *87:6 *87:12 40.7686 
3 *87:12 *87:18 32.2579 
4 *87:18 *4532:A2 23 
*END

*D_NET *88 0.000270774
*CONN
*I *4531:A1 I *D sky130_fd_sc_hd__o22a_1
*I *4527:X O *D sky130_fd_sc_hd__o21a_1
*CAP
1 *4531:A1 7.52193e-05
2 *4527:X 7.52193e-05
3 *4531:A1 *4531:A2 9.84851e-05
4 *4531:A1 *224:14 2.18506e-05
*RES
1 *4527:X *4531:A1 47.5743 
*END

*D_NET *89 0.00370167
*CONN
*I *4559:A3 I *D sky130_fd_sc_hd__a32o_1
*I *4529:A2 I *D sky130_fd_sc_hd__o21ai_1
*I *4528:Y O *D sky130_fd_sc_hd__nand2_1
*CAP
1 *4559:A3 0.000420949
2 *4529:A2 0.000123213
3 *4528:Y 0.000358766
4 *89:10 0.000902927
5 *4559:A3 *94:42 0.000148736
6 *4559:A3 *117:10 5.25848e-05
7 *4559:A3 *150:32 2.29192e-05
8 *4559:A3 *161:80 2.4754e-05
9 *4559:A3 *186:45 0.000700216
10 *89:10 *94:42 0.000344095
11 *89:10 *161:39 0
12 *89:10 *161:80 0
13 *89:10 *163:69 2.29461e-05
14 *89:10 *194:54 8.47428e-05
15 *89:10 *224:14 0.000269769
16 *77:23 *4529:A2 0.000185434
17 *83:22 *89:10 3.96156e-05
*RES
1 *4528:Y *89:10 45.7264 
2 *89:10 *4529:A2 40.0507 
3 *89:10 *4559:A3 48.5021 
*END

*D_NET *90 0.000678911
*CONN
*I *4531:A2 I *D sky130_fd_sc_hd__o22a_1
*I *4529:Y O *D sky130_fd_sc_hd__o21ai_1
*CAP
1 *4531:A2 3.07174e-05
2 *4529:Y 0.000105468
3 *90:8 0.000136185
4 *4531:A2 *224:14 0.000143655
5 *90:8 *161:39 0.000164401
6 *90:8 *161:140 0
7 *4531:A1 *4531:A2 9.84851e-05
*RES
1 *4529:Y *90:8 40.2579 
2 *90:8 *4531:A2 39.5743 
*END

*D_NET *91 0.00123145
*CONN
*I *4531:B1 I *D sky130_fd_sc_hd__o22a_1
*I *4530:X O *D sky130_fd_sc_hd__a32o_1
*CAP
1 *4531:B1 0.000324435
2 *4530:X 0.000112085
3 *91:8 0.00043652
4 *4531:B1 *163:75 0.000278859
5 *91:8 *143:65 0
6 *87:12 *91:8 7.95478e-05
*RES
1 *4530:X *91:8 40.2579 
2 *91:8 *4531:B1 45.7679 
*END

*D_NET *92 0.000730089
*CONN
*I *4532:B1 I *D sky130_fd_sc_hd__a22o_1
*I *4531:X O *D sky130_fd_sc_hd__o22a_1
*CAP
1 *4532:B1 0
2 *4531:X 0.000296632
3 *92:8 0.000296632
4 *92:8 *4532:B2 6.07611e-06
5 *92:8 *143:65 0
6 *92:8 *161:80 0
7 *92:8 *161:140 5.26204e-05
8 *92:8 *166:16 0
9 *87:18 *92:8 7.8128e-05
*RES
1 *4531:X *92:8 43.075 
2 *92:8 *4532:B1 38 
*END

*D_NET *93 0.00215982
*CONN
*I *4535:B1 I *D sky130_fd_sc_hd__a32o_1
*I *4532:X O *D sky130_fd_sc_hd__a22o_1
*CAP
1 *4535:B1 1.24748e-05
2 *4532:X 0.000377139
3 *93:10 0.000389614
4 *4535:B1 *4535:A3 1.19077e-05
5 *93:10 *4451:A 5.50049e-05
6 *93:10 *150:45 0.00053263
7 *93:10 *240:8 0.000228909
8 *93:10 *240:21 0.000528158
9 *4535:A2 *4535:B1 2.39868e-05
*RES
1 *4532:X *93:10 48.1914 
2 *93:10 *4535:B1 38.2796 
*END

*D_NET *94 0.00777589
*CONN
*I *4534:A I *D sky130_fd_sc_hd__inv_1
*I *4544:B1 I *D sky130_fd_sc_hd__a221o_1
*I *4551:A2 I *D sky130_fd_sc_hd__o2111a_1
*I *4533:Y O *D sky130_fd_sc_hd__nor2_2
*CAP
1 *4534:A 0
2 *4544:B1 0
3 *4551:A2 0.000169554
4 *4533:Y 0.000238233
5 *94:42 0.000885276
6 *94:31 0.000680586
7 *94:23 0.00186815
8 *94:10 0.000710077
9 *4551:A2 *4551:A1 5.37348e-06
10 *4551:A2 *4551:C1 0.000311554
11 *4551:A2 *173:81 0.000269775
12 *4551:A2 *173:94 5.67685e-05
13 *94:10 *4459:A 0
14 *94:10 *4550:A2 0.000139346
15 *94:10 *157:68 5.3304e-05
16 *94:10 *194:54 4.96264e-05
17 *94:23 *4459:A 0
18 *94:23 *158:34 0
19 *94:23 *194:54 0.000238728
20 *94:31 *4459:A 0.000169213
21 *94:31 *4544:C1 9.41704e-05
22 *94:31 *158:28 0.000108526
23 *94:31 *158:43 6.51763e-05
24 *94:31 *238:22 0.000926711
25 *94:31 *238:36 9.80125e-05
26 *94:42 *4551:A1 0
27 *94:42 *150:45 0
28 *94:42 *151:10 0
29 *94:42 *151:12 0
30 *94:42 *166:8 0
31 *94:42 *194:54 5.97612e-05
32 *4559:A3 *94:42 0.000148736
33 *67:8 *94:42 5.80963e-05
34 *67:21 *94:42 2.70366e-05
35 *89:10 *94:42 0.000344095
*RES
1 *4533:Y *94:10 41.6043 
2 *94:10 *4551:A2 43.4064 
3 *94:10 *94:23 6.48357 
4 *94:23 *94:31 32.8143 
5 *94:31 *4544:B1 23 
6 *94:23 *94:42 32.022 
7 *94:42 *4534:A 23 
*END

*D_NET *95 0.000521005
*CONN
*I *4535:A3 I *D sky130_fd_sc_hd__a32o_1
*I *4534:Y O *D sky130_fd_sc_hd__inv_1
*CAP
1 *4535:A3 0.000221258
2 *4534:Y 0.000221258
3 *4535:A2 *4535:A3 6.65812e-05
4 *4535:B1 *4535:A3 1.19077e-05
*RES
1 *4534:Y *4535:A3 49.7389 
*END

*D_NET *96 0.000967039
*CONN
*I *4539:A2 I *D sky130_fd_sc_hd__a211o_1
*I *4537:X O *D sky130_fd_sc_hd__a211o_1
*CAP
1 *4539:A2 0
2 *4537:X 0.000231624
3 *96:10 0.000231624
4 *96:10 *4537:A2 3.22879e-05
5 *96:10 *4537:B1 2.45964e-05
6 *96:10 *148:18 4.08641e-05
7 *96:10 *157:21 7.03766e-05
8 *96:10 *157:36 4.07715e-05
9 *96:10 *190:46 6.99782e-05
10 *96:10 *194:46 0.00015795
11 *96:10 *194:74 6.69655e-05
*RES
1 *4537:X *96:10 43.6964 
2 *96:10 *4539:A2 38 
*END

*D_NET *97 0.000777675
*CONN
*I *4539:B1 I *D sky130_fd_sc_hd__a211o_1
*I *4538:Y O *D sky130_fd_sc_hd__a2111oi_1
*CAP
1 *4539:B1 0
2 *4538:Y 0.000207908
3 *97:10 0.000207908
4 *97:10 *4538:C1 5.37348e-06
5 *97:10 *4538:D1 5.50049e-05
6 *97:10 *190:46 0.000160182
7 *97:10 *237:16 5.50106e-05
8 *83:16 *97:10 8.62876e-05
*RES
1 *4538:Y *97:10 41.8321 
2 *97:10 *4539:B1 38 
*END

*D_NET *98 0.00329714
*CONN
*I *4543:A2 I *D sky130_fd_sc_hd__a31o_1
*I *4539:X O *D sky130_fd_sc_hd__a211o_1
*CAP
1 *4543:A2 0.000458651
2 *4539:X 0.000617612
3 *98:10 0.00107626
4 *4543:A2 *4505:A 0.000141954
5 *4543:A2 *149:28 0.000238747
6 *4543:A2 *173:110 3.22879e-05
7 *98:10 *4522:C 0.000227208
8 *98:10 *167:34 3.31683e-05
9 *98:10 *195:46 0.000471253
10 *98:10 *231:41 0
*RES
1 *4539:X *98:10 48.2743 
2 *98:10 *4543:A2 48.1707 
*END

*D_NET *99 0.000126903
*CONN
*I *4541:B I *D sky130_fd_sc_hd__nand2_1
*I *4540:X O *D sky130_fd_sc_hd__o221a_1
*CAP
1 *4541:B 6.74574e-06
2 *4540:X 6.74574e-06
3 *4541:B *4540:A2 5.67058e-05
4 *4541:B *194:36 5.67058e-05
*RES
1 *4540:X *4541:B 46.6214 
*END

*D_NET *100 0.000888756
*CONN
*I *4543:A3 I *D sky130_fd_sc_hd__a31o_1
*I *4541:Y O *D sky130_fd_sc_hd__nand2_1
*CAP
1 *4543:A3 0
2 *4541:Y 0.000269999
3 *100:10 0.000269999
4 *100:10 *4540:A1 5.50106e-05
5 *100:10 *4540:A2 8.48502e-06
6 *100:10 *194:36 0.000140259
7 *100:10 *220:22 0
8 *100:10 *220:28 6.28601e-06
9 *100:10 *229:92 0.000138718
*RES
1 *4541:Y *100:10 42.4329 
2 *100:10 *4543:A3 38 
*END

*D_NET *101 0.000534341
*CONN
*I *4543:B1 I *D sky130_fd_sc_hd__a31o_1
*I *4542:X O *D sky130_fd_sc_hd__o311a_1
*CAP
1 *4543:B1 0
2 *4542:X 0.000172123
3 *101:10 0.000172123
4 *101:10 *149:28 4.08641e-05
5 *101:10 *154:42 1.05235e-05
6 *101:10 *220:22 0.000138708
7 *101:10 *229:92 0
*RES
1 *4542:X *101:10 41.0036 
2 *101:10 *4543:B1 38 
*END

*D_NET *102 0.00365168
*CONN
*I *4548:B1 I *D sky130_fd_sc_hd__a32o_1
*I *4543:X O *D sky130_fd_sc_hd__a31o_1
*CAP
1 *4548:B1 0
2 *4543:X 8.16808e-05
3 *102:14 0.000777944
4 *102:8 0.000859625
5 *102:8 *173:110 5.25848e-05
6 *102:14 *4456:A 0.000107548
7 *102:14 *4547:A1 0.000200422
8 *102:14 *4548:A1 3.32677e-05
9 *102:14 *4570:A1 0.000182873
10 *102:14 *149:28 0.000166522
11 *102:14 *155:26 0.000103019
12 *102:14 *156:10 0.000326983
13 *102:14 *164:19 9.39262e-05
14 *102:14 *164:32 3.58196e-05
15 *102:14 *165:8 0.000195345
16 *102:14 *173:154 0
17 *102:14 *179:12 8.24898e-05
18 *102:14 *224:28 0
19 *102:14 *229:92 0.000351626
*RES
1 *4543:X *102:8 39.0979 
2 *102:8 *102:14 36.6568 
3 *102:14 *4548:B1 23 
*END

*D_NET *103 0.000807009
*CONN
*I *4548:A2 I *D sky130_fd_sc_hd__a32o_1
*I *4544:X O *D sky130_fd_sc_hd__a221o_1
*CAP
1 *4548:A2 0
2 *4544:X 0.000225454
3 *103:10 0.000225454
4 *103:10 *4547:A1 0.000323812
5 *103:10 *224:58 0
6 *103:10 *238:36 3.22879e-05
*RES
1 *4544:X *103:10 42.9921 
2 *103:10 *4548:A2 38 
*END

*D_NET *104 0.00175389
*CONN
*I *4574:B1 I *D sky130_fd_sc_hd__a22o_1
*I *4578:C I *D sky130_fd_sc_hd__and3_1
*I *4545:Y O *D sky130_fd_sc_hd__nand2_1
*CAP
1 *4574:B1 0.000183181
2 *4578:C 0
3 *4545:Y 0
4 *104:14 0.000435527
5 *104:4 0.000618708
6 *4574:B1 *4545:B 2.03764e-06
7 *4574:B1 *128:26 7.51453e-06
8 *4574:B1 *163:30 5.56356e-05
9 *4574:B1 *218:67 8.57116e-05
10 *104:14 *133:8 6.25657e-05
11 *104:14 *218:67 0.000196347
12 *104:14 *234:128 1.7992e-05
13 *104:14 *238:55 6.33614e-05
14 *64:71 *104:14 2.76611e-06
15 *64:96 *104:14 2.25399e-05
*RES
1 *4545:Y *104:4 23 
2 *104:4 *104:14 37.2707 
3 *104:14 *4578:C 23 
4 *104:4 *4574:B1 26.3971 
*END

*D_NET *105 0.00940451
*CONN
*I *4564:A2_N I *D sky130_fd_sc_hd__a2bb2o_1
*I *4558:B I *D sky130_fd_sc_hd__nor2_1
*I *4547:B1 I *D sky130_fd_sc_hd__a211o_1
*I *4568:B I *D sky130_fd_sc_hd__or3_1
*I *4546:X O *D sky130_fd_sc_hd__and4_4
*CAP
1 *4564:A2_N 0.00037468
2 *4558:B 7.70115e-05
3 *4547:B1 1.39224e-05
4 *4568:B 0
5 *4546:X 0.000240132
6 *105:35 0.00085849
7 *105:31 0.00169921
8 *105:29 0.00119802
9 *105:14 0.00088118
10 *4547:B1 *4547:A1 5.90675e-06
11 *4547:B1 *4547:C1 1.14154e-05
12 *4558:B *4547:C1 1.14154e-05
13 *4558:B *4558:A 3.91386e-05
14 *4558:B *161:80 1.59094e-05
15 *4558:B *161:86 1.40958e-05
16 *4558:B *224:80 1.24376e-05
17 *4564:A2_N *4564:A1_N 9.84794e-05
18 *4564:A2_N *186:78 9.84794e-05
19 *4564:A2_N *188:27 0
20 *105:14 *158:12 5.09988e-05
21 *105:14 *229:33 5.25626e-05
22 *105:14 *234:100 0.000170321
23 *105:29 *123:8 4.98718e-06
24 *105:29 *158:12 1.22803e-05
25 *105:29 *164:6 0.000100069
26 *105:29 *164:19 0.000660613
27 *105:29 *238:55 8.62876e-05
28 *105:31 *130:10 0.000338973
29 *105:31 *161:104 0.00042156
30 *105:31 *238:36 2.09183e-05
31 *105:35 *4547:A1 7.15126e-05
32 *105:35 *161:86 0.000423155
33 *65:25 *105:31 0.000567659
34 *66:10 *105:31 0.000111852
35 *66:23 *4564:A2_N 0.000139657
36 *66:23 *105:31 0.000521176
*RES
1 *4546:X *105:14 42.7229 
2 *105:14 *4568:B 38 
3 *105:14 *105:29 40.15 
4 *105:29 *105:31 16.6957 
5 *105:31 *105:35 29.9143 
6 *105:35 *4547:B1 23.4971 
7 *105:35 *4558:B 24.595 
8 *105:31 *4564:A2_N 45.2914 
*END

*D_NET *106 0.000592982
*CONN
*I *4548:A3 I *D sky130_fd_sc_hd__a32o_1
*I *4547:X O *D sky130_fd_sc_hd__a211o_1
*CAP
1 *4548:A3 0
2 *4547:X 0.000164142
3 *106:10 0.000164142
4 *106:10 *4547:A1 8.16253e-05
5 *106:10 *107:12 8.62876e-05
6 *106:10 *161:86 9.67842e-05
*RES
1 *4547:X *106:10 41.3557 
2 *106:10 *4548:A3 38 
*END

*D_NET *107 0.00186479
*CONN
*I *4549:A2 I *D sky130_fd_sc_hd__a21o_1
*I *4548:X O *D sky130_fd_sc_hd__a32o_1
*CAP
1 *4549:A2 0
2 *4548:X 4.00127e-05
3 *107:12 0.000698076
4 *107:8 0.000738088
5 *107:8 *186:61 3.22879e-05
6 *107:12 *4488:B 0
7 *107:12 *4547:A1 1.69668e-05
8 *107:12 *186:57 0
9 *64:57 *107:12 0.00025307
10 *77:31 *107:12 0
11 *106:10 *107:12 8.62876e-05
*RES
1 *4548:X *107:8 38.6214 
2 *107:8 *107:12 28.5264 
3 *107:12 *4549:A2 23 
*END

*D_NET *108 0.000318703
*CONN
*I *4551:B1 I *D sky130_fd_sc_hd__o2111a_1
*I *4550:X O *D sky130_fd_sc_hd__a211o_1
*CAP
1 *4551:B1 0
2 *4550:X 0.000106473
3 *108:10 0.000106473
4 *108:10 *113:10 8.62876e-05
5 *108:10 *155:24 1.94693e-05
6 *108:10 *158:28 0
*RES
1 *4550:X *108:10 39.8229 
2 *108:10 *4551:B1 38 
*END

*D_NET *109 0.000669654
*CONN
*I *4556:C1 I *D sky130_fd_sc_hd__a211o_1
*I *4551:X O *D sky130_fd_sc_hd__o2111a_1
*CAP
1 *4556:C1 0
2 *4551:X 0.000179257
3 *109:10 0.000179257
4 *109:10 *4459:A 8.16356e-05
5 *109:10 *113:10 0.000168754
6 *109:10 *173:81 4.75206e-05
7 *109:10 *173:94 1.32314e-05
*RES
1 *4551:X *109:10 41.8321 
2 *109:10 *4556:C1 38 
*END

*D_NET *110 0.00407356
*CONN
*I *4556:A2 I *D sky130_fd_sc_hd__a211o_1
*I *4552:X O *D sky130_fd_sc_hd__a32o_1
*CAP
1 *4556:A2 0
2 *4552:X 0.000887004
3 *110:16 0.000397814
4 *110:6 0.00128482
5 *110:6 *4551:C1 2.03764e-06
6 *110:6 *4624:A 0.000173009
7 *110:6 *143:33 0.00048023
8 *110:6 *143:37 0.000185428
9 *110:6 *173:81 1.57571e-05
10 *110:6 *238:10 5.3304e-05
11 *110:16 *4556:A1 1.14154e-05
12 *110:16 *179:38 2.93845e-05
13 *110:16 *179:47 0.00027183
14 *110:16 *194:54 0.000141879
15 *83:22 *110:16 0.000139647
*RES
1 *4552:X *110:6 36.485 
2 *110:6 *110:16 38.7414 
3 *110:16 *4556:A2 23 
*END

*D_NET *111 0.000608989
*CONN
*I *4555:A1 I *D sky130_fd_sc_hd__a21oi_1
*I *4553:X O *D sky130_fd_sc_hd__or3b_1
*CAP
1 *4555:A1 0
2 *4553:X 0.000213409
3 *111:10 0.000213409
4 *111:10 *157:47 0
5 *111:10 *167:26 9.36522e-05
6 *111:10 *231:41 8.85189e-05
*RES
1 *4553:X *111:10 41.7286 
2 *111:10 *4555:A1 38 
*END

*D_NET *112 0.0067582
*CONN
*I *4555:A2 I *D sky130_fd_sc_hd__a21oi_1
*I *4554:X O *D sky130_fd_sc_hd__or3_1
*CAP
1 *4555:A2 0
2 *4554:X 0
3 *112:8 0.00181168
4 *112:4 0.00181168
5 *112:8 *4525:B1 0.000263657
6 *112:8 *4554:B 0.000137651
7 *112:8 *173:38 0.000312342
8 *112:8 *181:38 0.000139346
9 *112:8 *181:46 0.00170982
10 *112:8 *219:38 4.5707e-05
11 *112:8 *230:50 0.000393287
12 *112:8 *232:20 0.000119313
13 *4555:B1 *112:8 1.37232e-05
*RES
1 *4554:X *112:4 23 
2 *112:4 *112:8 40.0614 
3 *112:8 *4555:A2 23 
*END

*D_NET *113 0.0012585
*CONN
*I *4556:B1 I *D sky130_fd_sc_hd__a211o_1
*I *4555:Y O *D sky130_fd_sc_hd__a21oi_1
*CAP
1 *4556:B1 0
2 *4555:Y 0.000378321
3 *113:10 0.000378321
4 *113:10 *4459:A 7.70658e-05
5 *113:10 *4551:A1 5.93381e-05
6 *113:10 *158:28 0
7 *113:10 *167:41 0
8 *113:10 *231:41 7.8128e-05
9 *4555:B1 *113:10 3.22879e-05
10 *108:10 *113:10 8.62876e-05
11 *109:10 *113:10 0.000168754
*RES
1 *4555:Y *113:10 46.5136 
2 *113:10 *4556:B1 38 
*END

*D_NET *114 0.00222554
*CONN
*I *4560:A2 I *D sky130_fd_sc_hd__a22o_1
*I *4556:X O *D sky130_fd_sc_hd__a211o_1
*CAP
1 *4560:A2 0
2 *4556:X 0
3 *114:12 0.000733509
4 *114:6 0.000733509
5 *114:12 *4551:A1 0.000100533
6 *114:12 *4557:A2 0.000181934
7 *114:12 *151:10 7.45175e-05
8 *114:12 *158:28 7.03766e-05
9 *114:12 *159:10 0.000165593
10 *114:12 *167:41 0
11 *114:12 *186:45 6.70914e-05
12 *114:12 *188:67 9.84794e-05
*RES
1 *4556:X *114:6 38 
2 *114:6 *114:12 29.2721 
3 *114:12 *4560:A2 23 
*END

*D_NET *115 0.0011395
*CONN
*I *4559:B1 I *D sky130_fd_sc_hd__a32o_1
*I *4557:Y O *D sky130_fd_sc_hd__o21ai_1
*CAP
1 *4559:B1 1.24748e-05
2 *4557:Y 0.000336506
3 *115:10 0.000348981
4 *4559:B1 *4559:A1 2.39868e-05
5 *4559:B1 *161:80 1.19077e-05
6 *115:10 *4548:A1 0
7 *115:10 *167:41 7.91596e-05
8 *77:23 *115:10 5.50049e-05
9 *77:31 *115:10 0.000271476
*RES
1 *4557:Y *115:10 43.7379 
2 *115:10 *4559:B1 38.2796 
*END

*D_NET *116 0.000707517
*CONN
*I *4559:B2 I *D sky130_fd_sc_hd__a32o_1
*I *4558:Y O *D sky130_fd_sc_hd__nor2_1
*CAP
1 *4559:B2 5.99482e-05
2 *4558:Y 5.99482e-05
3 *4559:B2 *4558:A 5.50106e-05
4 *4559:B2 *4559:A1 0.000173278
5 *4559:B2 *161:80 0.000359332
*RES
1 *4558:Y *4559:B2 49.9564 
*END

*D_NET *117 0.000531562
*CONN
*I *4560:B1 I *D sky130_fd_sc_hd__a22o_1
*I *4559:X O *D sky130_fd_sc_hd__a32o_1
*CAP
1 *4560:B1 0
2 *4559:X 0.00012587
3 *117:10 0.00012587
4 *117:10 *167:56 0.000113153
5 *117:10 *186:45 0.000114083
6 *4559:A3 *117:10 5.25848e-05
*RES
1 *4559:X *117:10 40.6514 
2 *117:10 *4560:B1 38 
*END

*D_NET *118 0.00193301
*CONN
*I *4561:B1 I *D sky130_fd_sc_hd__a32o_1
*I *4560:X O *D sky130_fd_sc_hd__a22o_1
*CAP
1 *4561:B1 0.000195723
2 *4560:X 0.000577876
3 *118:8 0.000773599
4 *64:45 *4561:B1 2.64836e-05
5 *64:51 *4561:B1 0.000359332
*RES
1 *4560:X *118:8 48.005 
2 *118:8 *4561:B1 42.6711 
*END

*D_NET *119 0.000598048
*CONN
*I *4563:A0 I *D sky130_fd_sc_hd__mux2_1
*I *4562:X O *D sky130_fd_sc_hd__or3_1
*CAP
1 *4563:A0 3.80122e-05
2 *4562:X 6.27702e-05
3 *119:8 0.000100782
4 *4563:A0 *4563:A1 5.3304e-05
5 *119:8 *4515:B1 1.01436e-05
6 *119:8 *169:16 0.000166522
7 *119:8 *232:37 0.000166513
*RES
1 *4562:X *119:8 40.2579 
2 *119:8 *4563:A0 38.6214 
*END

*D_NET *120 0.0121508
*CONN
*I *4564:B1 I *D sky130_fd_sc_hd__a2bb2o_1
*I *4563:X O *D sky130_fd_sc_hd__mux2_1
*CAP
1 *4564:B1 0.000368751
2 *4563:X 0
3 *120:8 0.00160242
4 *120:4 0.00123367
5 *4564:B1 *4489:A 2.97706e-05
6 *4564:B1 *4564:A1_N 4.46649e-05
7 *4564:B1 *188:10 0.000995703
8 *4564:B1 *188:27 1.43933e-05
9 *4564:B1 *215:8 0.00136316
10 *4564:B1 *215:10 0.000159734
11 *120:8 *4504:A 0.000286571
12 *120:8 *4563:A1 0.000315857
13 *120:8 *187:14 4.05745e-05
14 *120:8 *188:82 0.00108629
15 *120:8 *188:101 4.08664e-05
16 *120:8 *215:8 0
17 *120:8 *215:10 0.00353477
18 *4504:B *4564:B1 0.000313249
19 *4504:B *120:8 0.000720316
*RES
1 *4563:X *120:4 23 
2 *120:4 *120:8 47.3321 
3 *120:8 *4564:B1 43.01 
*END

*D_NET *121 0.00124319
*CONN
*I *4565:B I *D sky130_fd_sc_hd__or4b_1
*I *4566:A2 I *D sky130_fd_sc_hd__a21bo_1
*I *4564:X O *D sky130_fd_sc_hd__a2bb2o_1
*CAP
1 *4565:B 0
2 *4566:A2 0.0002924
3 *4564:X 6.27655e-05
4 *121:21 6.15839e-05
5 *121:6 0.00041675
6 *4566:A2 *215:8 0.000224587
7 *121:6 *215:8 0.000100069
8 *121:21 *186:78 8.50366e-05
*RES
1 *4564:X *121:6 24.0979 
2 *121:6 *4566:A2 27.3293 
3 *121:6 *121:21 31.2014 
4 *121:21 *4565:B 23 
*END

*D_NET *122 0.000682904
*CONN
*I *4566:B1_N I *D sky130_fd_sc_hd__a21bo_1
*I *4565:X O *D sky130_fd_sc_hd__or4b_1
*CAP
1 *4566:B1_N 0
2 *4565:X 0.000317263
3 *122:10 0.000317263
4 *122:10 *188:27 0
5 *64:71 *122:10 4.83778e-05
*RES
1 *4565:X *122:10 42.9093 
2 *122:10 *4566:B1_N 38 
*END

*D_NET *123 0.00148357
*CONN
*I *4568:C I *D sky130_fd_sc_hd__or3_1
*I *4567:Y O *D sky130_fd_sc_hd__a21oi_1
*CAP
1 *4568:C 5.78968e-05
2 *4567:Y 0.000232964
3 *123:8 0.000290861
4 *4568:C *158:16 2.18409e-05
5 *4568:C *164:6 9.58714e-05
6 *4568:C *238:61 9.67842e-05
7 *123:8 *4567:A1 0.000108681
8 *123:8 *158:12 0.000141888
9 *123:8 *218:41 2.04774e-05
10 *123:8 *218:52 1.47563e-05
11 *123:8 *218:67 6.07611e-06
12 *123:8 *234:63 4.43717e-05
13 *123:8 *234:74 5.97612e-05
14 *123:8 *234:100 2.91142e-05
15 *123:8 *238:55 1.58805e-05
16 *123:8 *238:61 0.000241355
17 *105:29 *123:8 4.98718e-06
*RES
1 *4567:Y *123:8 44.4836 
2 *123:8 *4568:C 39.5743 
*END

*D_NET *124 0.00125309
*CONN
*I *4572:A3 I *D sky130_fd_sc_hd__a311o_1
*I *4569:A3 I *D sky130_fd_sc_hd__a31oi_1
*I *4568:X O *D sky130_fd_sc_hd__or3_1
*CAP
1 *4572:A3 0.000171039
2 *4569:A3 0
3 *4568:X 0.000195857
4 *124:12 0.000171039
5 *124:10 0.000195857
6 *4572:A3 *4569:A1 5.73309e-05
7 *4572:A3 *125:8 6.46484e-05
8 *4572:A3 *128:12 6.3568e-05
9 *4572:A3 *173:133 3.85196e-05
10 *4572:A3 *229:33 2.93747e-05
11 *4572:A3 *234:100 2.77574e-05
12 *124:10 *158:16 9.93794e-05
13 *124:10 *234:114 0.000138718
14 *65:14 *124:10 0
*RES
1 *4568:X *124:10 41.3557 
2 *124:10 *124:12 15 
3 *124:12 *4569:A3 23 
4 *124:12 *4572:A3 27.6193 
*END

*D_NET *125 0.000800987
*CONN
*I *4572:B1 I *D sky130_fd_sc_hd__a311o_1
*I *4569:Y O *D sky130_fd_sc_hd__a31oi_1
*CAP
1 *4572:B1 0
2 *4569:Y 0.00033695
3 *125:8 0.00033695
4 *125:8 *161:104 2.93845e-05
5 *125:8 *173:133 3.30536e-05
6 *4572:A3 *125:8 6.46484e-05
*RES
1 *4569:Y *125:8 27.8057 
2 *125:8 *4572:B1 23 
*END

*D_NET *126 0.000536201
*CONN
*I *4571:B1 I *D sky130_fd_sc_hd__o211a_1
*I *4570:X O *D sky130_fd_sc_hd__a211o_1
*CAP
1 *4571:B1 0
2 *4570:X 0.000147398
3 *126:10 0.000147398
4 *126:10 *4542:B1 6.07611e-06
5 *126:10 *173:110 0.000140958
6 *126:10 *179:12 6.07929e-05
7 *4555:B1 *126:10 3.3577e-05
*RES
1 *4570:X *126:10 41.0036 
2 *126:10 *4571:B1 38 
*END

*D_NET *127 0.00157815
*CONN
*I *4572:C1 I *D sky130_fd_sc_hd__a311o_1
*I *4571:X O *D sky130_fd_sc_hd__o211a_1
*CAP
1 *4572:C1 0.00031494
2 *4571:X 0.000110804
3 *127:8 0.000425743
4 *4572:C1 *173:133 2.4754e-05
5 *127:8 *173:110 0
6 *4555:B1 *4572:C1 0.000701912
*RES
1 *4571:X *127:8 39.9057 
2 *127:8 *4572:C1 46.2443 
*END

*D_NET *128 0.00355858
*CONN
*I *4577:B1 I *D sky130_fd_sc_hd__a32o_1
*I *4572:X O *D sky130_fd_sc_hd__a311o_1
*CAP
1 *4577:B1 5.22363e-05
2 *4572:X 0.000224038
3 *128:26 0.00078668
4 *128:12 0.000958482
5 *4577:B1 *4577:A3 0.000124068
6 *4577:B1 *238:40 9.106e-05
7 *128:12 *4569:A1 7.51453e-06
8 *128:12 *234:114 0.000153506
9 *128:26 *163:20 0
10 *128:26 *163:30 0.000124219
11 *128:26 *163:43 0.000185221
12 *128:26 *177:26 0.00013449
13 *128:26 *234:114 0.000457536
14 *128:26 *234:134 4.2812e-06
15 *4572:A3 *128:12 6.3568e-05
16 *4574:B1 *128:26 7.51453e-06
17 *64:96 *128:26 0.000122581
18 *65:14 *128:12 6.15872e-05
*RES
1 *4572:X *128:12 42.4536 
2 *128:12 *128:26 44.7279 
3 *128:26 *4577:B1 39.8125 
*END

*D_NET *129 0.00119666
*CONN
*I *4575:A1 I *D sky130_fd_sc_hd__a21o_1
*I *4573:Y O *D sky130_fd_sc_hd__nand2_1
*CAP
1 *4575:A1 0.000157331
2 *4573:Y 0.000138672
3 *129:10 0.000296003
4 *4575:A1 *224:58 0.000177604
5 *129:10 *4576:C1 5.3304e-05
6 *129:10 *161:86 0.000124102
7 *129:10 *161:104 6.16531e-05
8 *66:23 *129:10 0.000187986
*RES
1 *4573:Y *129:10 41.2314 
2 *129:10 *4575:A1 40.0507 
*END

*D_NET *130 0.00125398
*CONN
*I *4575:A2 I *D sky130_fd_sc_hd__a21o_1
*I *4574:X O *D sky130_fd_sc_hd__a22o_1
*CAP
1 *4575:A2 0
2 *4574:X 0.000347917
3 *130:10 0.000347917
4 *130:10 *4577:B2 0
5 *130:10 *163:43 7.35193e-06
6 *130:10 *234:134 5.21024e-05
7 *130:10 *238:36 6.08751e-05
8 *64:96 *130:10 4.21378e-05
9 *66:10 *130:10 5.67058e-05
10 *105:31 *130:10 0.000338973
*RES
1 *4574:X *130:10 44.2971 
2 *130:10 *4575:A2 38 
*END

*D_NET *131 0.000896565
*CONN
*I *4577:A2 I *D sky130_fd_sc_hd__a32o_1
*I *4575:X O *D sky130_fd_sc_hd__a21o_1
*CAP
1 *4577:A2 0
2 *4575:X 0.000280379
3 *131:10 0.000280379
4 *131:10 *188:27 0.000110913
5 *131:10 *234:128 0.000224895
*RES
1 *4575:X *131:10 42.0807 
2 *131:10 *4577:A2 38 
*END

*D_NET *132 0.000661903
*CONN
*I *4577:A3 I *D sky130_fd_sc_hd__a32o_1
*I *4576:X O *D sky130_fd_sc_hd__a311o_1
*CAP
1 *4577:A3 0.000239329
2 *4576:X 0.000239329
3 *4577:A3 *4578:A 0
4 *4577:A3 *238:40 5.91759e-05
5 *4577:B1 *4577:A3 0.000124068
*RES
1 *4576:X *4577:A3 49.8529 
*END

*D_NET *133 0.00196901
*CONN
*I *4579:S I *D sky130_fd_sc_hd__mux2_4
*I *4577:X O *D sky130_fd_sc_hd__a32o_1
*CAP
1 *4579:S 0
2 *4577:X 0.000666093
3 *133:8 0.000666093
4 *133:8 *4578:A 1.94693e-05
5 *133:8 *238:40 6.23522e-05
6 *4579:A1 *133:8 0.000423053
7 *64:96 *133:8 6.93882e-05
8 *104:14 *133:8 6.25657e-05
*RES
1 *4577:X *133:8 33.5229 
2 *133:8 *4579:S 23 
*END

*D_NET *134 0.000722843
*CONN
*I *4579:A0 I *D sky130_fd_sc_hd__mux2_4
*I *4578:X O *D sky130_fd_sc_hd__and3_1
*CAP
1 *4579:A0 0
2 *4578:X 0.000147477
3 *134:8 0.000147477
4 *4579:A1 *134:8 0.000361027
5 *64:96 *134:8 6.68617e-05
*RES
1 *4578:X *134:8 27.8057 
2 *134:8 *4579:A0 23 
*END

*D_NET *135 0.0028834
*CONN
*I *4585:B I *D sky130_fd_sc_hd__nor2_1
*I *4584:B I *D sky130_fd_sc_hd__and2_4
*I *4583:A I *D sky130_fd_sc_hd__nor2_1
*I *4581:X O *D sky130_fd_sc_hd__and3_4
*CAP
1 *4585:B 0
2 *4584:B 0.000147226
3 *4583:A 0.000456014
4 *4581:X 0
5 *135:19 0.000737242
6 *135:4 0.00104603
7 *4583:A *4583:B 6.86453e-05
8 *4583:A *4596:A 0.000242749
9 *4583:A *199:52 8.40718e-05
10 *4584:B *202:20 9.53499e-05
11 *135:19 *4603:CLK 0
12 *135:19 *4605:CLK 0
13 *135:19 *202:20 6.07611e-06
14 *3:13 *4584:B 0
15 *3:13 *135:19 0
*RES
1 *4581:X *135:4 23 
2 *135:4 *4583:A 31.7414 
3 *135:4 *135:19 26.1236 
4 *135:19 *4584:B 40.61 
5 *135:19 *4585:B 38 
*END

*D_NET *136 0.00138574
*CONN
*I *4583:B I *D sky130_fd_sc_hd__nor2_1
*I *4582:Y O *D sky130_fd_sc_hd__a21oi_1
*CAP
1 *4583:B 0.000169198
2 *4582:Y 0.000124997
3 *136:8 0.000294195
4 *4583:B *4596:A 0.000109521
5 *136:8 *4443:A1 0.00015965
6 *136:8 *199:52 0.000326983
7 *4583:A *4583:B 6.86453e-05
8 *48:10 *4583:B 5.67058e-05
9 *56:10 *4583:B 7.58407e-05
*RES
1 *4582:Y *136:8 42.3707 
2 *136:8 *4583:B 41.9771 
*END

*D_NET *137 0.00321545
*CONN
*I *4586:A I *D sky130_fd_sc_hd__nor2_1
*I *4587:B I *D sky130_fd_sc_hd__xor2_1
*I *4588:C I *D sky130_fd_sc_hd__and3_4
*I *4589:A2 I *D sky130_fd_sc_hd__a21oi_1
*I *4584:X O *D sky130_fd_sc_hd__and2_4
*CAP
1 *4586:A 0.000107578
2 *4587:B 0
3 *4588:C 8.42054e-05
4 *4589:A2 0.000118799
5 *4584:X 0
6 *137:12 0.000427163
7 *137:8 0.000791215
8 *137:4 0.000674634
9 *4588:C *250:6 0.000182826
10 *4589:A2 *4588:A 3.70363e-05
11 *4589:A2 *140:10 1.94693e-05
12 *4589:A2 *203:46 2.30292e-05
13 *4589:A2 *250:6 9.84794e-05
14 *137:8 *4606:CLK 0.00015954
15 *137:8 *202:20 2.76611e-06
16 *137:8 *208:10 6.16439e-05
17 *137:8 *248:10 0
18 *137:12 *208:10 0.000404038
19 *5:13 *137:8 0
20 *49:10 *4586:A 2.30292e-05
*RES
1 *4584:X *137:4 23 
2 *137:4 *137:8 26.4136 
3 *137:8 *137:12 20.4271 
4 *137:12 *4589:A2 26.6664 
5 *137:12 *4588:C 25.0507 
6 *137:8 *4587:B 38 
7 *137:4 *4586:A 25.0714 
*END

*D_NET *138 0.000708534
*CONN
*I *4586:B I *D sky130_fd_sc_hd__nor2_1
*I *4585:Y O *D sky130_fd_sc_hd__nor2_1
*CAP
1 *4586:B 0
2 *4585:Y 0.000279485
3 *138:10 0.000279485
4 *138:10 *4443:A0 5.50049e-05
5 *138:10 *202:12 9.45591e-05
6 *138:10 *202:20 0
7 *5:13 *138:10 0
8 *49:10 *138:10 0
*RES
1 *4585:Y *138:10 42.4329 
2 *138:10 *4586:B 38 
*END

*D_NET *139 0.00311538
*CONN
*I *4590:A I *D sky130_fd_sc_hd__nor2_1
*I *4592:B I *D sky130_fd_sc_hd__or2_1
*I *4591:B I *D sky130_fd_sc_hd__nand2_1
*I *4588:X O *D sky130_fd_sc_hd__and3_4
*CAP
1 *4590:A 0
2 *4592:B 0
3 *4591:B 0.000200325
4 *4588:X 9.24669e-05
5 *139:28 0.00115633
6 *139:12 0.000983493
7 *139:8 0.000119958
8 *4591:B *4591:A 0.000104087
9 *4591:B *242:20 2.47815e-05
10 *139:8 *208:10 0.000166522
11 *139:28 *4485:B 0.000137153
12 *139:28 *205:8 6.07611e-06
13 *5:13 *139:8 0
14 *51:10 *139:8 1.58805e-05
15 *51:10 *139:12 5.3304e-05
16 *51:10 *139:28 5.50049e-05
*RES
1 *4588:X *139:8 40.2579 
2 *139:8 *139:12 15.6214 
3 *139:12 *139:28 48.995 
4 *139:28 *4591:B 27.1636 
5 *139:28 *4592:B 23 
6 *139:12 *4590:A 23 
*END

*D_NET *140 0.000403212
*CONN
*I *4590:B I *D sky130_fd_sc_hd__nor2_1
*I *4589:Y O *D sky130_fd_sc_hd__a21oi_1
*CAP
1 *4590:B 0
2 *4589:Y 0.00014931
3 *140:10 0.00014931
4 *140:10 *208:10 8.51225e-05
5 *4589:A2 *140:10 1.94693e-05
*RES
1 *4589:Y *140:10 40.8793 
2 *140:10 *4590:B 38 
*END

*D_NET *141 0.00213988
*CONN
*I *4593:A I *D sky130_fd_sc_hd__and2_1
*I *4594:B I *D sky130_fd_sc_hd__xnor2_1
*I *4591:Y O *D sky130_fd_sc_hd__nand2_1
*CAP
1 *4593:A 0
2 *4594:B 0
3 *4591:Y 0.000174471
4 *141:16 0.000860333
5 *141:10 0.0010348
6 *141:10 *4591:A 5.37348e-06
7 *141:10 *142:8 0
8 *141:10 *205:8 0
9 *141:10 *242:20 9.8971e-06
10 *141:16 *4594:A 5.50049e-05
11 *141:16 *205:8 0
*RES
1 *4591:Y *141:10 40.8793 
2 *141:10 *141:16 30.6186 
3 *141:16 *4594:B 23 
4 *141:10 *4593:A 38 
*END

*D_NET *142 0.000390886
*CONN
*I *4593:B I *D sky130_fd_sc_hd__and2_1
*I *4592:X O *D sky130_fd_sc_hd__or2_1
*CAP
1 *4593:B 4.33446e-05
2 *4592:X 9.23742e-05
3 *142:8 0.000135719
4 *4593:B *4609:CLK 4.63945e-05
5 *142:8 *205:8 6.68793e-05
6 *52:8 *4593:B 6.17437e-06
7 *141:10 *142:8 0
*RES
1 *4592:X *142:8 39.9057 
2 *142:8 *4593:B 39.0979 
*END

*D_NET *143 0.0161847
*CONN
*I *4626:A I *D sky130_fd_sc_hd__buf_1
*I *4623:A I *D sky130_fd_sc_hd__clkbuf_1
*I *4624:A I *D sky130_fd_sc_hd__buf_1
*I *4625:A I *D sky130_fd_sc_hd__clkbuf_1
*I *4443:X O *D sky130_fd_sc_hd__mux2_8
*CAP
1 *4626:A 0
2 *4623:A 0
3 *4624:A 9.73392e-05
4 *4625:A 0
5 *4443:X 0
6 *143:65 0.000780778
7 *143:54 0.000232259
8 *143:37 0.000408713
9 *143:33 0.00267526
10 *143:16 0.00346878
11 *143:10 0.00243943
12 *143:6 0.000786025
13 *4624:A *157:68 9.74722e-05
14 *4624:A *161:58 0.000270682
15 *143:10 *4473:S 0
16 *143:10 *207:12 0
17 *143:10 *233:12 0
18 *143:10 *241:63 0.000219728
19 *143:10 *241:76 0
20 *143:10 *241:97 9.28842e-05
21 *143:10 *243:20 0
22 *143:10 *249:14 0
23 *143:16 *4501:A2 0.000269775
24 *143:33 *4510:A1 4.14827e-05
25 *143:33 *4510:A2 0.000250295
26 *143:33 *4552:A3 0.000474118
27 *143:33 *4671:A 0.000148688
28 *143:33 *157:68 0.000147883
29 *143:33 *173:61 0.000393742
30 *143:33 *182:37 0.000135037
31 *143:33 *219:8 1.14876e-05
32 *143:33 *239:8 9.84851e-05
33 *143:37 *157:68 3.80755e-05
34 *143:54 *4644:A 0
35 *143:54 *155:20 4.73456e-05
36 *143:54 *157:68 2.18409e-05
37 *143:54 *161:58 0
38 *143:54 *173:77 4.56447e-05
39 *143:65 *161:140 0
40 *143:65 *166:16 0.00026506
41 *143:65 *179:57 0
42 *143:65 *195:30 0
43 *143:65 *224:8 0
44 *4501:B1 *143:16 0.000137686
45 *4512:A3 *143:33 0.000518726
46 *4512:B1 *143:33 0.000233551
47 *64:8 *143:16 9.84851e-05
48 *74:8 *143:33 0.000399297
49 *91:8 *143:65 0
50 *92:8 *143:65 0
51 *110:6 *4624:A 0.000173009
52 *110:6 *143:33 0.00048023
53 *110:6 *143:37 0.000185428
*RES
1 *4443:X *143:6 38 
2 *143:6 *143:10 30.9914 
3 *143:10 *143:16 29.725 
4 *143:16 *4625:A 23 
5 *143:16 *143:33 42.7543 
6 *143:33 *143:37 2.9 
7 *143:37 *4624:A 27.9093 
8 *143:37 *143:54 33.8529 
9 *143:54 *4623:A 23 
10 *143:33 *143:65 43.8786 
11 *143:65 *4626:A 23 
*END

*D_NET *144 0.00402882
*CONN
*I *4471:A2 I *D sky130_fd_sc_hd__a41o_1
*I *4509:A I *D sky130_fd_sc_hd__and3_1
*I *4449:A I *D sky130_fd_sc_hd__and3_4
*I *4455:A1 I *D sky130_fd_sc_hd__a31oi_4
*I *4444:Y O *D sky130_fd_sc_hd__nand2_2
*CAP
1 *4471:A2 0
2 *4509:A 6.03586e-05
3 *4449:A 0
4 *4455:A1 0.000301014
5 *4444:Y 0.000172475
6 *144:51 0.000288466
7 *144:36 0.000740653
8 *144:10 0.000763298
9 *144:8 0.00102659
10 *4455:A1 *4455:A3 0.000238208
11 *4455:A1 *145:28 0
12 *4509:A *4509:B 2.72257e-05
13 *144:36 *4509:B 2.45549e-06
14 *144:51 *4471:A3 0.000271476
15 *144:51 *4614:A 2.4754e-05
16 *144:51 *145:16 0.000111852
17 *144:51 *230:24 0
18 *64:16 *144:8 0
19 *64:16 *144:10 0
*RES
1 *4444:Y *144:8 41.3143 
2 *144:8 *144:10 7.89214 
3 *144:10 *4455:A1 44.1314 
4 *144:10 *4449:A 38 
5 *144:8 *144:36 21.3386 
6 *144:36 *4509:A 24.0979 
7 *144:36 *144:51 35.0336 
8 *144:51 *4471:A2 23 
*END

*D_NET *145 0.00520473
*CONN
*I *4509:B I *D sky130_fd_sc_hd__and3_1
*I *4471:A3 I *D sky130_fd_sc_hd__a41o_1
*I *4449:B I *D sky130_fd_sc_hd__and3_4
*I *4455:A2 I *D sky130_fd_sc_hd__a31oi_4
*I *4445:Y O *D sky130_fd_sc_hd__nand2b_4
*CAP
1 *4509:B 0.000154012
2 *4471:A3 7.30483e-05
3 *4449:B 6.88498e-05
4 *4455:A2 0
5 *4445:Y 0.000501182
6 *145:28 0.000240487
7 *145:22 0.000812902
8 *145:16 0.000764081
9 *145:10 0.00062141
10 *145:8 0.000781113
11 *4449:B *4449:C 8.60475e-05
12 *4449:B *173:30 2.4754e-05
13 *4471:A3 *4614:A 0.000184527
14 *4471:A3 *162:12 0.000141954
15 *145:10 *4621:A 0
16 *145:10 *146:10 0
17 *145:10 *230:24 0
18 *145:16 *230:24 0
19 *145:22 *4449:C 0.000314157
20 *145:22 *173:30 2.32004e-05
21 *145:22 *230:24 0
22 *145:22 *230:35 0
23 *145:28 *4449:C 0
24 *145:28 *232:104 0
25 *4455:A1 *145:28 0
26 *4509:A *4509:B 2.72257e-05
27 *144:36 *4509:B 2.45549e-06
28 *144:51 *4471:A3 0.000271476
29 *144:51 *145:16 0.000111852
*RES
1 *4445:Y *145:8 46.7207 
2 *145:8 *145:10 5.075 
3 *145:10 *145:16 4.08071 
4 *145:16 *145:22 24.7357 
5 *145:22 *145:28 33.6664 
6 *145:28 *4455:A2 23 
7 *145:22 *4449:B 24.5743 
8 *145:16 *4471:A3 41.48 
9 *145:10 *4509:B 40.0507 
*END

*D_NET *146 0.00202867
*CONN
*I *4622:A I *D sky130_fd_sc_hd__clkbuf_1
*I *4621:A I *D sky130_fd_sc_hd__clkbuf_2
*I *4446:X O *D sky130_fd_sc_hd__mux2_1
*CAP
1 *4622:A 0
2 *4621:A 9.8787e-05
3 *4446:X 0.000701065
4 *146:10 0.000799852
5 *4621:A *230:22 6.48142e-05
6 *4621:A *230:24 0.000110913
7 *146:10 *186:12 9.2779e-05
8 *146:10 *230:22 0.00016046
9 *145:10 *4621:A 0
10 *145:10 *146:10 0
*RES
1 *4446:X *146:10 48.9786 
2 *146:10 *4621:A 40.2579 
3 *146:10 *4622:A 38 
*END

*D_NET *147 0.000595551
*CONN
*I *4620:A I *D sky130_fd_sc_hd__clkbuf_1
*I *4447:X O *D sky130_fd_sc_hd__mux2_1
*CAP
1 *4620:A 0
2 *4447:X 0.000297775
3 *147:10 0.000297775
4 *147:10 *243:12 0
*RES
1 *4447:X *147:10 42.3086 
2 *147:10 *4620:A 38 
*END

*D_NET *148 0.00103159
*CONN
*I *4537:A1 I *D sky130_fd_sc_hd__a211o_1
*I *4538:A1 I *D sky130_fd_sc_hd__a2111oi_1
*I *4448:Y O *D sky130_fd_sc_hd__inv_1
*CAP
1 *4537:A1 0
2 *4538:A1 0
3 *4448:Y 0.000137882
4 *148:18 0.000205901
5 *148:8 0.000343782
6 *148:8 *4537:B1 5.50106e-05
7 *148:8 *223:53 0.000101697
8 *148:18 *4537:B1 0.000138718
9 *148:18 *4538:C1 6.17437e-06
10 *148:18 *157:21 0
11 *148:18 *194:74 1.56662e-06
12 *96:10 *148:18 4.08641e-05
*RES
1 *4448:Y *148:8 25.7861 
2 *148:8 *148:18 33.3764 
3 *148:18 *4538:A1 23 
4 *148:8 *4537:A1 23 
*END

*D_NET *149 0.0151222
*CONN
*I *4554:B I *D sky130_fd_sc_hd__or3_1
*I *4523:B I *D sky130_fd_sc_hd__or3_1
*I *4570:A1 I *D sky130_fd_sc_hd__a211o_1
*I *4542:A2 I *D sky130_fd_sc_hd__o311a_1
*I *4449:X O *D sky130_fd_sc_hd__and3_4
*CAP
1 *4554:B 0.000176078
2 *4523:B 0
3 *4570:A1 0.000104425
4 *4542:A2 2.77218e-05
5 *4449:X 0.00124013
6 *149:28 0.00176123
7 *149:22 0.00162908
8 *149:20 0.00155072
9 *149:14 0.00176378
10 *149:10 0.000428754
11 *149:6 0.00127975
12 *4542:A2 *4542:A3 2.64616e-05
13 *4542:A2 *154:42 5.3304e-05
14 *4554:B *230:50 4.79641e-05
15 *4570:A1 *4542:A3 0.000192087
16 *149:6 *155:14 0.000692404
17 *149:6 *173:30 0.000576269
18 *149:10 *173:30 7.6144e-05
19 *149:10 *232:37 8.4047e-05
20 *149:14 *173:30 1.01436e-05
21 *149:14 *191:10 3.0647e-05
22 *149:14 *193:61 4.99753e-06
23 *149:14 *230:56 0
24 *149:14 *232:12 0.000163352
25 *149:14 *232:37 7.39034e-05
26 *149:20 *4553:B 0
27 *149:20 *161:58 0.000111852
28 *149:20 *167:20 0.00102139
29 *149:20 *167:26 0.000957554
30 *149:20 *194:46 0
31 *149:28 *4542:A3 6.25829e-05
32 *149:28 *173:110 3.22879e-05
33 *149:28 *220:22 4.98718e-06
34 *4523:C *149:28 1.94812e-05
35 *4543:A2 *149:28 0.000238747
36 *4555:B1 *4570:A1 5.3304e-05
37 *75:10 *149:14 0
38 *83:22 *149:28 9.87414e-05
39 *101:10 *149:28 4.08641e-05
40 *102:14 *4570:A1 0.000182873
41 *102:14 *149:28 0.000166522
42 *112:8 *4554:B 0.000137651
*RES
1 *4449:X *149:6 42.2021 
2 *149:6 *149:10 16.2014 
3 *149:10 *149:14 19.3707 
4 *149:14 *149:20 47.6664 
5 *149:20 *149:22 15 
6 *149:22 *149:28 38.8421 
7 *149:28 *4542:A2 38.6214 
8 *149:28 *4570:A1 41.2314 
9 *149:22 *4523:B 23 
10 *149:10 *4554:B 40.5271 
*END

*D_NET *150 0.0145122
*CONN
*I *4472:A1 I *D sky130_fd_sc_hd__a31o_1
*I *4561:A2 I *D sky130_fd_sc_hd__a32o_1
*I *4451:B I *D sky130_fd_sc_hd__nand2_1
*I *4450:Y O *D sky130_fd_sc_hd__nand2b_4
*CAP
1 *4472:A1 0
2 *4561:A2 0
3 *4451:B 0
4 *4450:Y 0
5 *150:45 0.000563412
6 *150:32 0.00176638
7 *150:26 0.00133156
8 *150:20 0.000936651
9 *150:10 0.00176235
10 *150:6 0.000954295
11 *150:10 *4450:B 0.000236604
12 *150:10 *4515:A2 0
13 *150:10 *4563:S 0.000404047
14 *150:10 *4648:A 0
15 *150:10 *153:10 0
16 *150:10 *167:75 3.47781e-05
17 *150:10 *169:10 0
18 *150:10 *172:10 0.000164282
19 *150:10 *195:10 0
20 *150:10 *232:37 0.000145921
21 *150:10 *232:50 0.000164282
22 *150:10 *236:27 0
23 *150:20 *161:14 0.00112885
24 *150:20 *167:75 7.20518e-05
25 *150:20 *232:37 0
26 *150:20 *234:8 0.00147351
27 *150:26 *176:14 0.000144894
28 *150:26 *198:12 0.000293785
29 *150:32 *161:80 0.000112665
30 *150:32 *186:37 0.00111093
31 *150:32 *186:45 0.000192031
32 *150:45 *4561:A1 0.000180212
33 *150:45 *240:21 2.70469e-05
34 *150:45 *240:32 0.00017677
35 *4559:A3 *150:32 2.29192e-05
36 *4561:A3 *150:45 5.50049e-05
37 *64:41 *150:45 1.21972e-05
38 *64:45 *150:45 2.9853e-05
39 *64:126 *150:45 0.000399677
40 *67:8 *150:45 5.561e-05
41 *67:21 *150:45 2.70469e-05
42 *87:18 *150:32 0
43 *87:18 *150:45 0
44 *93:10 *150:45 0.00053263
45 *94:42 *150:45 0
*RES
1 *4450:Y *150:6 38 
2 *150:6 *150:10 20.4864 
3 *150:10 *150:20 37.1021 
4 *150:20 *150:26 34.0186 
5 *150:26 *150:32 33.9743 
6 *150:32 *4451:B 38 
7 *150:32 *150:45 30.5771 
8 *150:45 *4561:A2 23 
9 *150:10 *4472:A1 38 
*END

*D_NET *151 0.00351758
*CONN
*I *4557:A1 I *D sky130_fd_sc_hd__o21ai_1
*I *4466:A1 I *D sky130_fd_sc_hd__o211a_1
*I *4551:A1 I *D sky130_fd_sc_hd__o2111a_1
*I *4451:Y O *D sky130_fd_sc_hd__nand2_1
*CAP
1 *4557:A1 0
2 *4466:A1 0
3 *4551:A1 0.000518437
4 *4451:Y 0.000496607
5 *151:12 0.000607115
6 *151:10 0.000585285
7 *4551:A1 *4459:A 0
8 *4551:A1 *4528:B 0
9 *4551:A1 *4557:A2 1.14452e-05
10 *4551:A1 *158:28 0
11 *4551:A1 *158:34 3.0647e-05
12 *4551:A1 *159:10 0.000163361
13 *4551:A1 *173:94 6.09117e-05
14 *151:10 *161:80 0.000571494
15 *151:12 *4528:B 0
16 *151:12 *4557:A2 0.000181934
17 *151:12 *166:8 3.96053e-05
18 *151:12 *177:52 1.09783e-05
19 *4551:A2 *4551:A1 5.37348e-06
20 *94:42 *4551:A1 0
21 *94:42 *151:10 0
22 *94:42 *151:12 0
23 *113:10 *4551:A1 5.93381e-05
24 *114:12 *4551:A1 0.000100533
25 *114:12 *151:10 7.45175e-05
*RES
1 *4451:Y *151:10 46.5964 
2 *151:10 *151:12 2.61 
3 *151:12 *4551:A1 47.3629 
4 *151:12 *4466:A1 38 
5 *151:10 *4557:A1 38 
*END

*D_NET *152 0.000965283
*CONN
*I *4617:A I *D sky130_fd_sc_hd__clkbuf_2
*I *4495:A_N I *D sky130_fd_sc_hd__nand2b_4
*I *4452:X O *D sky130_fd_sc_hd__mux2_1
*CAP
1 *4617:A 0
2 *4495:A_N 4.24511e-05
3 *4452:X 0.000307202
4 *152:21 0.000132988
5 *152:8 0.000482641
6 *152:21 *170:8 0
7 *152:21 *170:46 0
*RES
1 *4452:X *152:8 28.7586 
2 *152:8 *4495:A_N 23.6214 
3 *152:8 *152:21 32.2579 
4 *152:21 *4617:A 23 
*END

*D_NET *153 0.00400541
*CONN
*I *4515:A2 I *D sky130_fd_sc_hd__a22o_4
*I *4510:A1 I *D sky130_fd_sc_hd__a21oi_1
*I *4554:C I *D sky130_fd_sc_hd__or3_1
*I *4453:Y O *D sky130_fd_sc_hd__clkinv_1
*CAP
1 *4515:A2 0.000150503
2 *4510:A1 6.18382e-05
3 *4554:C 0.000306578
4 *4453:Y 4.72972e-05
5 *153:10 0.00104945
6 *153:8 0.00087883
7 *4510:A1 *219:8 2.64616e-05
8 *4515:A2 *4515:B1 5.50106e-05
9 *4515:A2 *4515:B2 0.000185434
10 *4515:A2 *170:18 0
11 *4515:A2 *222:10 0
12 *4515:A2 *236:27 7.42621e-05
13 *4554:C *155:10 5.68423e-05
14 *4554:C *167:75 0
15 *4554:C *219:12 0.000397725
16 *4554:C *219:34 0.000227208
17 *4554:C *222:10 0
18 *4554:C *230:50 0.000268074
19 *153:8 *4472:B1 1.94693e-05
20 *153:10 *167:75 0
21 *153:10 *171:8 0
22 *153:10 *222:10 0
23 *4512:B1 *4510:A1 6.56843e-05
24 *71:10 *153:10 9.32613e-05
25 *143:33 *4510:A1 4.14827e-05
26 *150:10 *4515:A2 0
27 *150:10 *153:10 0
*RES
1 *4453:Y *153:8 38.6214 
2 *153:8 *153:10 12.47 
3 *153:10 *4554:C 46.7829 
4 *153:10 *4510:A1 39.5743 
5 *153:8 *4515:A2 41.9564 
*END

*D_NET *154 0.00382833
*CONN
*I *4465:A I *D sky130_fd_sc_hd__nand2_1
*I *4571:A1 I *D sky130_fd_sc_hd__o211a_1
*I *4541:A I *D sky130_fd_sc_hd__nand2_1
*I *4454:Y O *D sky130_fd_sc_hd__nand2b_2
*CAP
1 *4465:A 0
2 *4571:A1 0
3 *4541:A 1.49804e-05
4 *4454:Y 0.000250899
5 *154:42 0.000739663
6 *154:27 0.000976534
7 *154:14 0.00050275
8 *4541:A *4540:A2 5.50106e-05
9 *4541:A *194:36 5.50106e-05
10 *154:14 *218:95 0.000146365
11 *154:14 *229:77 5.2894e-05
12 *154:14 *230:80 0
13 *154:27 *173:110 0.000227497
14 *154:27 *218:95 9.63918e-05
15 *154:27 *229:92 0
16 *154:42 *4456:A 0.000111158
17 *154:42 *4542:B1 2.62931e-05
18 *154:42 *155:26 2.3529e-05
19 *154:42 *220:14 0.000166513
20 *154:42 *220:16 0.000169683
21 *154:42 *224:28 3.70187e-05
22 *4542:A2 *154:42 5.3304e-05
23 *4542:C1 *154:42 4.96717e-05
24 *4571:A2 *154:42 6.26408e-05
25 *101:10 *154:42 1.05235e-05
*RES
1 *4454:Y *154:14 42.9507 
2 *154:14 *4541:A 38.6214 
3 *154:14 *154:27 20.7793 
4 *154:27 *4571:A1 23 
5 *154:27 *154:42 43.775 
6 *154:42 *4465:A 23 
*END

*D_NET *155 0.0138873
*CONN
*I *4521:A2 I *D sky130_fd_sc_hd__o2111a_1
*I *4550:B1 I *D sky130_fd_sc_hd__a211o_1
*I *4456:A I *D sky130_fd_sc_hd__inv_1
*I *4570:B1 I *D sky130_fd_sc_hd__a211o_1
*I *4542:A3 I *D sky130_fd_sc_hd__o311a_1
*I *4455:Y O *D sky130_fd_sc_hd__a31oi_4
*CAP
1 *4521:A2 0
2 *4550:B1 2.46939e-05
3 *4456:A 0.000145271
4 *4570:B1 0
5 *4542:A3 0.000129489
6 *4455:Y 0.000531695
7 *155:26 0.000219274
8 *155:24 0.000753206
9 *155:20 0.00147896
10 *155:14 0.00154454
11 *155:10 0.00114011
12 *4456:A *4465:B 2.96912e-05
13 *4456:A *224:28 2.96912e-05
14 *4542:A3 *220:16 0.000184174
15 *4542:A3 *220:22 5.589e-05
16 *4550:B1 *4550:A2 2.41378e-06
17 *155:10 *4455:A3 0.000122226
18 *155:10 *222:10 0
19 *155:10 *230:50 0.000269555
20 *155:14 *4476:A 0.000327001
21 *155:14 *4511:A3 0.000474124
22 *155:14 *173:30 0.000673612
23 *155:14 *177:77 0.00113496
24 *155:14 *219:59 0.000166987
25 *155:14 *219:67 5.67058e-05
26 *155:14 *227:16 1.03955e-05
27 *155:14 *227:22 3.17516e-05
28 *155:20 *4550:A2 4.04303e-05
29 *155:20 *157:68 4.34973e-05
30 *155:20 *173:77 0.000438701
31 *155:20 *194:46 4.08664e-05
32 *155:20 *194:54 9.58714e-05
33 *155:20 *219:67 0.00035322
34 *155:20 *220:6 0.000103647
35 *155:20 *220:8 0.000107611
36 *155:20 *220:14 9.6103e-05
37 *155:20 *220:87 9.84794e-05
38 *155:20 *237:8 2.93845e-05
39 *155:24 *4550:A2 7.88926e-05
40 *155:24 *158:16 0.000830646
41 *155:24 *220:14 0.000288134
42 *155:26 *220:14 0.000157309
43 *155:26 *220:16 1.14452e-05
44 *4542:A2 *4542:A3 2.64616e-05
45 *4554:C *155:10 5.68423e-05
46 *4570:A1 *4542:A3 0.000192087
47 *82:10 *155:20 9.41704e-05
48 *102:14 *4456:A 0.000107548
49 *102:14 *155:26 0.000103019
50 *108:10 *155:24 1.94693e-05
51 *143:54 *155:20 4.73456e-05
52 *149:6 *155:14 0.000692404
53 *149:28 *4542:A3 6.25829e-05
54 *154:42 *4456:A 0.000111158
55 *154:42 *155:26 2.3529e-05
*RES
1 *4455:Y *155:10 48.73 
2 *155:10 *155:14 38.49 
3 *155:14 *155:20 22.2264 
4 *155:20 *155:24 29.9143 
5 *155:24 *155:26 2.96214 
6 *155:26 *4542:A3 41.9357 
7 *155:26 *4570:B1 38 
8 *155:24 *4456:A 41.9098 
9 *155:20 *4550:B1 23.4971 
10 *155:14 *4521:A2 23 
*END

*D_NET *156 0.000941421
*CONN
*I *4544:A1 I *D sky130_fd_sc_hd__a221o_1
*I *4456:Y O *D sky130_fd_sc_hd__inv_1
*CAP
1 *4544:A1 0
2 *4456:Y 0.000125326
3 *156:10 0.000125326
4 *156:10 *164:32 0.000329214
5 *156:10 *173:100 3.45717e-05
6 *102:14 *156:10 0.000326983
*RES
1 *4456:Y *156:10 42.7539 
2 *156:10 *4544:A1 38 
*END

*D_NET *157 0.0130384
*CONN
*I *4552:A2 I *D sky130_fd_sc_hd__a32o_1
*I *4507:B I *D sky130_fd_sc_hd__nand2_1
*I *4550:A2 I *D sky130_fd_sc_hd__a211o_1
*I *4553:A I *D sky130_fd_sc_hd__or3b_1
*I *4538:A2 I *D sky130_fd_sc_hd__a2111oi_1
*I *4537:A2 I *D sky130_fd_sc_hd__a211o_1
*I *4457:Y O *D sky130_fd_sc_hd__xnor2_2
*CAP
1 *4552:A2 0
2 *4507:B 0.000629734
3 *4550:A2 0.000184604
4 *4553:A 0
5 *4538:A2 3.42813e-05
6 *4537:A2 4.91051e-05
7 *4457:Y 0.000340027
8 *157:72 0.00162733
9 *157:68 0.00208633
10 *157:47 0.00149766
11 *157:36 0.00067577
12 *157:21 0.000608552
13 *157:10 0.00051195
14 *4507:B *176:27 0.000310647
15 *4507:B *195:14 1.32289e-05
16 *4537:A2 *223:53 0.00014196
17 *4538:A2 *194:38 1.94812e-05
18 *4550:A2 *194:54 5.3304e-05
19 *4550:A2 *220:87 9.84794e-05
20 *157:10 *4457:A 5.41288e-05
21 *157:21 *4457:A 0
22 *157:36 *194:46 0.000272027
23 *157:36 *231:41 0
24 *157:36 *234:22 0
25 *157:47 *194:54 3.47781e-05
26 *157:47 *220:87 6.25068e-05
27 *157:47 *231:41 0
28 *157:68 *4552:A3 3.44446e-05
29 *157:68 *161:39 1.01436e-05
30 *157:68 *161:58 0.000227208
31 *157:68 *173:77 0.000132225
32 *157:68 *194:46 5.3304e-05
33 *157:68 *194:54 4.08664e-05
34 *157:72 *4536:A 0.000137842
35 *157:72 *4536:B 4.16338e-05
36 *157:72 *169:50 0.000632713
37 *157:72 *195:24 0.000371746
38 *157:72 *234:16 0.000330717
39 *4550:B1 *4550:A2 2.41378e-06
40 *4624:A *157:68 9.74722e-05
41 *64:24 *4507:B 6.51763e-05
42 *83:22 *157:36 0.000248979
43 *83:22 *157:47 0.000456477
44 *83:22 *157:68 6.7177e-06
45 *87:12 *157:72 0.000135682
46 *94:10 *4550:A2 0.000139346
47 *94:10 *157:68 5.3304e-05
48 *96:10 *4537:A2 3.22879e-05
49 *96:10 *157:21 7.03766e-05
50 *96:10 *157:36 4.07715e-05
51 *111:10 *157:47 0
52 *143:33 *157:68 0.000147883
53 *143:37 *157:68 3.80755e-05
54 *143:54 *157:68 2.18409e-05
55 *148:18 *157:21 0
56 *155:20 *4550:A2 4.04303e-05
57 *155:20 *157:68 4.34973e-05
58 *155:24 *4550:A2 7.88926e-05
*RES
1 *4457:Y *157:10 43.9657 
2 *157:10 *4537:A2 39.5743 
3 *157:10 *157:21 2.61 
4 *157:21 *4538:A2 38.6214 
5 *157:21 *157:36 9.715 
6 *157:36 *4553:A 38 
7 *157:36 *157:47 21.1314 
8 *157:47 *4550:A2 27.4536 
9 *157:47 *157:68 47.4621 
10 *157:68 *157:72 41.5557 
11 *157:72 *4507:B 47.0936 
12 *157:68 *4552:A2 23 
*END

*D_NET *158 0.0163456
*CONN
*I *4518:A1 I *D sky130_fd_sc_hd__a211o_1
*I *4517:A I *D sky130_fd_sc_hd__nor2_1
*I *4476:B I *D sky130_fd_sc_hd__nand2_2
*I *4530:A1 I *D sky130_fd_sc_hd__a32o_1
*I *4459:B I *D sky130_fd_sc_hd__nor2_1
*I *4458:X O *D sky130_fd_sc_hd__xor2_2
*CAP
1 *4518:A1 0.000124711
2 *4517:A 0
3 *4476:B 0
4 *4530:A1 0
5 *4459:B 0
6 *4458:X 0.000524775
7 *158:62 0.000311632
8 *158:54 0.000335114
9 *158:52 0.000406716
10 *158:43 0.00165275
11 *158:34 5.12095e-05
12 *158:28 0.00212196
13 *158:16 0.0020408
14 *158:12 0.00188906
15 *4518:A1 *4518:A2 0.00014196
16 *4518:A1 *180:10 5.70419e-05
17 *4518:A1 *193:39 8.48502e-06
18 *158:12 *4458:B 9.84794e-05
19 *158:12 *229:42 0.00022109
20 *158:12 *234:100 1.01436e-05
21 *158:16 *4502:A 0.000704525
22 *158:16 *164:6 3.05357e-05
23 *158:16 *164:19 0.000199445
24 *158:16 *173:119 4.6595e-05
25 *158:16 *220:14 0.000788866
26 *158:16 *238:61 5.50106e-05
27 *158:28 *4459:A 7.76948e-05
28 *158:28 *167:41 0.00022255
29 *158:43 *4459:A 0.000183733
30 *158:43 *4673:A 0.000416516
31 *158:43 *195:24 7.96152e-06
32 *158:43 *195:30 1.21972e-05
33 *158:43 *238:22 5.08147e-05
34 *158:52 *4530:A3 2.02517e-05
35 *158:52 *4530:B2 9.67842e-05
36 *158:52 *193:39 0.000145287
37 *158:52 *195:24 0.000103543
38 *158:62 *176:6 9.67842e-05
39 *158:62 *177:71 1.78655e-05
40 *158:62 *177:77 7.56417e-05
41 *158:62 *182:20 0.000400895
42 *158:62 *198:12 0.000606543
43 *158:62 *219:59 5.50049e-05
44 *158:62 *219:67 5.67058e-05
45 *4518:B1 *4518:A1 5.0948e-05
46 *4551:A1 *158:28 0
47 *4551:A1 *158:34 3.0647e-05
48 *4568:C *158:16 2.18409e-05
49 *65:6 *158:16 0.000126114
50 *65:14 *158:16 0.000269093
51 *94:23 *158:34 0
52 *94:31 *158:28 0.000108526
53 *94:31 *158:43 6.51763e-05
54 *105:14 *158:12 5.09988e-05
55 *105:29 *158:12 1.22803e-05
56 *108:10 *158:28 0
57 *113:10 *158:28 0
58 *114:12 *158:28 7.03766e-05
59 *123:8 *158:12 0.000141888
60 *124:10 *158:16 9.93794e-05
61 *155:24 *158:16 0.000830646
*RES
1 *4458:X *158:12 48.1707 
2 *158:12 *158:16 47.5421 
3 *158:16 *158:28 42.9464 
4 *158:28 *158:34 30.8493 
5 *158:34 *4459:B 23 
6 *158:28 *158:43 20.1757 
7 *158:43 *4530:A1 23 
8 *158:43 *158:52 5.75857 
9 *158:52 *158:54 0.497143 
10 *158:54 *158:62 39.3421 
11 *158:62 *4476:B 23 
12 *158:54 *4517:A 23 
13 *158:52 *4518:A1 26.5007 
*END

*D_NET *159 0.00248062
*CONN
*I *4557:A2 I *D sky130_fd_sc_hd__o21ai_1
*I *4466:A2 I *D sky130_fd_sc_hd__o211a_1
*I *4527:A1 I *D sky130_fd_sc_hd__o21a_1
*I *4459:Y O *D sky130_fd_sc_hd__nor2_1
*CAP
1 *4557:A2 6.58757e-05
2 *4466:A2 0
3 *4527:A1 0.000150905
4 *4459:Y 0.000185128
5 *159:12 0.000150905
6 *159:10 0.000251004
7 *4527:A1 *4466:B1 3.91386e-05
8 *4527:A1 *4528:A 5.1803e-05
9 *4527:A1 *163:52 3.14733e-05
10 *4527:A1 *163:69 9.6916e-05
11 *4527:A1 *177:52 7.44257e-05
12 *4527:A1 *224:14 0.000537728
13 *159:10 *238:22 0.000141052
14 *4551:A1 *4557:A2 1.14452e-05
15 *4551:A1 *159:10 0.000163361
16 *114:12 *4557:A2 0.000181934
17 *114:12 *159:10 0.000165593
18 *151:12 *4557:A2 0.000181934
*RES
1 *4459:Y *159:10 41.8321 
2 *159:10 *159:12 15 
3 *159:12 *4527:A1 29.3593 
4 *159:12 *4466:A2 23 
5 *159:10 *4557:A2 40.61 
*END

*D_NET *160 0.000197028
*CONN
*I *4461:B1 I *D sky130_fd_sc_hd__o21ai_4
*I *4460:X O *D sky130_fd_sc_hd__or2_4
*CAP
1 *4461:B1 9.8514e-05
2 *4460:X 9.8514e-05
*RES
1 *4460:X *4461:B1 47.5743 
*END

*D_NET *161 0.0338464
*CONN
*I *4531:B2 I *D sky130_fd_sc_hd__o22a_1
*I *4529:B1 I *D sky130_fd_sc_hd__o21ai_1
*I *4547:C1 I *D sky130_fd_sc_hd__a211o_1
*I *4576:C1 I *D sky130_fd_sc_hd__a311o_1
*I *4572:A1 I *D sky130_fd_sc_hd__a311o_1
*I *4539:C1 I *D sky130_fd_sc_hd__a211o_1
*I *4540:C1 I *D sky130_fd_sc_hd__o221a_1
*I *4551:C1 I *D sky130_fd_sc_hd__o2111a_1
*I *4516:A I *D sky130_fd_sc_hd__or3b_1
*I *4461:Y O *D sky130_fd_sc_hd__o21ai_4
*CAP
1 *4531:B2 0
2 *4529:B1 0
3 *4547:C1 3.08782e-05
4 *4576:C1 7.90431e-05
5 *4572:A1 0
6 *4539:C1 0
7 *4540:C1 0.000647762
8 *4551:C1 0.000443533
9 *4516:A 0
10 *4461:Y 0.000250125
11 *161:140 0.000138896
12 *161:104 0.00069286
13 *161:86 0.00159644
14 *161:80 0.00164437
15 *161:58 0.00132078
16 *161:39 0.00162968
17 *161:35 0.00132011
18 *161:31 6.05964e-05
19 *161:29 0.000921283
20 *161:20 0.000867857
21 *161:14 0.00344897
22 *161:12 0.00332092
23 *161:10 0.000250125
24 *4540:C1 *190:33 3.84027e-05
25 *4540:C1 *190:46 5.50049e-05
26 *4540:C1 *195:46 0.00113777
27 *4540:C1 *234:20 0.000431545
28 *4547:C1 *4547:A1 9.72057e-06
29 *4551:C1 *173:81 0.000110389
30 *4576:C1 *4573:A 2.28308e-05
31 *4576:C1 *177:26 1.4345e-05
32 *4576:C1 *177:35 3.7877e-05
33 *4576:C1 *177:52 2.02872e-05
34 *161:10 *233:12 0.000253061
35 *161:10 *243:20 0.000250839
36 *161:14 *4444:B 0.00022295
37 *161:14 *234:8 0.000472776
38 *161:20 *4519:B2 0
39 *161:20 *168:51 0
40 *161:20 *180:10 0
41 *161:29 *166:16 0.000164364
42 *161:31 *166:16 0.000120857
43 *161:35 *166:16 2.93845e-05
44 *161:39 *4527:B1 0.000187446
45 *161:39 *173:77 6.25829e-05
46 *161:39 *224:8 0
47 *161:39 *238:10 0.000429611
48 *161:58 *4533:A 0
49 *161:58 *4553:B 0
50 *161:58 *4644:A 8.02348e-05
51 *161:58 *190:33 9.67842e-05
52 *161:58 *194:46 0
53 *161:58 *220:98 0
54 *161:58 *234:20 4.79641e-05
55 *161:58 *237:10 0.000579947
56 *161:58 *237:16 0.000191148
57 *161:80 *4559:A1 4.03613e-05
58 *161:80 *186:45 0.000914079
59 *161:80 *224:80 5.61255e-06
60 *161:86 *4547:A1 0.000137651
61 *161:86 *194:10 1.14452e-05
62 *161:86 *194:23 0.000361655
63 *161:104 *173:133 5.3304e-05
64 *161:104 *177:10 0.000169449
65 *161:104 *194:10 0.000195559
66 *161:104 *230:91 0.000440529
67 *4516:C_N *161:20 4.21594e-06
68 *4519:A2 *161:29 4.05913e-05
69 *4519:B1 *161:29 0.000140768
70 *4547:B1 *4547:C1 1.14154e-05
71 *4551:A2 *4551:C1 0.000311554
72 *4558:B *4547:C1 1.14154e-05
73 *4558:B *161:80 1.59094e-05
74 *4558:B *161:86 1.40958e-05
75 *4559:A3 *161:80 2.4754e-05
76 *4559:B1 *161:80 1.19077e-05
77 *4559:B2 *161:80 0.000359332
78 *4578:B *4576:C1 6.17437e-06
79 *4624:A *161:58 0.000270682
80 *65:25 *161:104 3.72639e-05
81 *65:36 *161:104 0.000108661
82 *66:10 *161:104 0.000105159
83 *66:23 *161:86 0.000117775
84 *66:23 *161:104 1.22906e-05
85 *77:23 *161:29 0.00184187
86 *77:23 *161:31 0.000228903
87 *77:23 *161:35 5.50106e-05
88 *83:12 *4540:C1 0.000263955
89 *83:16 *161:58 9.03979e-05
90 *83:22 *161:39 0.000109095
91 *87:18 *161:80 0
92 *89:10 *161:39 0
93 *89:10 *161:80 0
94 *90:8 *161:39 0.000164401
95 *90:8 *161:140 0
96 *92:8 *161:80 0
97 *92:8 *161:140 5.26204e-05
98 *105:31 *161:104 0.00042156
99 *105:35 *161:86 0.000423155
100 *106:10 *161:86 9.67842e-05
101 *110:6 *4551:C1 2.03764e-06
102 *125:8 *161:104 2.93845e-05
103 *129:10 *4576:C1 5.3304e-05
104 *129:10 *161:86 0.000124102
105 *129:10 *161:104 6.16531e-05
106 *143:54 *161:58 0
107 *143:65 *161:140 0
108 *149:20 *161:58 0.000111852
109 *150:20 *161:14 0.00112885
110 *150:32 *161:80 0.000112665
111 *151:10 *161:80 0.000571494
112 *157:68 *161:39 1.01436e-05
113 *157:68 *161:58 0.000227208
*RES
1 *4461:Y *161:10 44.3179 
2 *161:10 *161:12 15 
3 *161:12 *161:14 46.835 
4 *161:14 *161:20 31.9057 
5 *161:20 *4516:A 23 
6 *161:20 *161:29 21.1286 
7 *161:29 *161:31 2.52714 
8 *161:31 *161:35 15.6214 
9 *161:35 *161:39 27.47 
10 *161:39 *4551:C1 29.3386 
11 *161:39 *161:58 48.125 
12 *161:58 *4540:C1 43.1964 
13 *161:58 *4539:C1 23 
14 *161:35 *161:80 35.0307 
15 *161:80 *161:86 34.0364 
16 *161:86 *161:104 32.98 
17 *161:104 *4572:A1 23 
18 *161:86 *4576:C1 40.0921 
19 *161:80 *4547:C1 23.8493 
20 *161:31 *4529:B1 23 
21 *161:29 *161:140 32.9621 
22 *161:140 *4531:B2 23 
*END

*D_NET *162 0.00430462
*CONN
*I *4615:A I *D sky130_fd_sc_hd__buf_1
*I *4614:A I *D sky130_fd_sc_hd__clkbuf_1
*I *4462:X O *D sky130_fd_sc_hd__mux2_1
*CAP
1 *4615:A 0
2 *4614:A 0.000187814
3 *4462:X 0.00012059
4 *162:12 0.0014222
5 *162:8 0.00135497
6 *4614:A *228:8 0.000141154
7 *4614:A *228:12 0.000141052
8 *162:8 *185:12 6.11286e-05
9 *162:8 *233:12 0.000354788
10 *4471:A3 *4614:A 0.000184527
11 *4471:A3 *162:12 0.000141954
12 *54:25 *162:8 0.000169683
13 *144:51 *4614:A 2.4754e-05
*RES
1 *4462:X *162:8 42.7229 
2 *162:8 *162:12 37.0607 
3 *162:12 *4614:A 28.3857 
4 *162:12 *4615:A 23 
*END

*D_NET *163 0.0220603
*CONN
*I *4540:A2 I *D sky130_fd_sc_hd__o221a_1
*I *4530:B2 I *D sky130_fd_sc_hd__a32o_1
*I *4552:B2 I *D sky130_fd_sc_hd__a32o_1
*I *4497:A1 I *D sky130_fd_sc_hd__o21ai_1
*I *4528:A I *D sky130_fd_sc_hd__nand2_1
*I *4576:A3 I *D sky130_fd_sc_hd__a311o_1
*I *4574:A1 I *D sky130_fd_sc_hd__a22o_1
*I *4463:Y O *D sky130_fd_sc_hd__nand2_4
*CAP
1 *4540:A2 0.000674607
2 *4530:B2 2.84143e-05
3 *4552:B2 0
4 *4497:A1 0
5 *4528:A 4.83475e-05
6 *4576:A3 0
7 *4574:A1 0
8 *4463:Y 0.000137699
9 *163:83 0.000919865
10 *163:77 0.00108861
11 *163:75 0.0014857
12 *163:69 0.00163333
13 *163:52 0.00233846
14 *163:43 0.00211971
15 *163:30 0.000486492
16 *163:20 0.00110045
17 *163:14 0.00151914
18 *163:10 0.000193895
19 *4530:B2 *193:39 9.67842e-05
20 *4540:A2 *4540:A1 5.41385e-05
21 *4540:A2 *194:6 0.000193749
22 *4540:A2 *194:36 0.000471089
23 *163:10 *4463:B 5.79559e-05
24 *163:10 *218:16 5.68958e-05
25 *163:10 *229:6 4.21048e-05
26 *163:10 *229:21 0.000164851
27 *163:14 *194:6 5.11621e-05
28 *163:20 *177:10 0.000632348
29 *163:20 *229:29 0
30 *163:30 *4545:B 9.92345e-05
31 *163:30 *177:10 0
32 *163:43 *4545:B 0.000132178
33 *163:43 *177:14 0.000100061
34 *163:43 *177:26 2.07944e-05
35 *163:43 *238:36 0.000231714
36 *163:52 *4576:A1 2.4961e-05
37 *163:52 *177:26 2.77175e-05
38 *163:52 *177:35 9.41704e-05
39 *163:52 *177:52 0.00228272
40 *163:52 *238:40 1.59094e-05
41 *163:69 *194:54 9.01352e-05
42 *163:69 *224:14 1.61361e-05
43 *163:75 *176:14 0.000164282
44 *163:75 *195:24 8.4047e-05
45 *163:75 *224:14 0.000349807
46 *163:75 *234:8 2.81066e-05
47 *163:75 *234:16 3.26321e-05
48 *163:77 *176:14 0.000428691
49 *163:77 *234:16 0.000205605
50 *163:83 *4497:A2 0
51 *163:83 *173:61 1.12487e-05
52 *163:83 *176:14 0.000163361
53 *163:83 *192:10 0.000137788
54 *163:83 *193:29 0
55 *163:83 *197:8 0
56 *163:83 *198:12 0
57 *163:83 *228:39 0
58 *163:83 *234:16 0.000321477
59 *4527:A1 *4528:A 5.1803e-05
60 *4527:A1 *163:52 3.14733e-05
61 *4527:A1 *163:69 9.6916e-05
62 *4531:B1 *163:75 0.000278859
63 *4541:A *4540:A2 5.50106e-05
64 *4541:B *4540:A2 5.67058e-05
65 *4574:B1 *163:30 5.56356e-05
66 *64:96 *163:30 7.51453e-06
67 *64:96 *163:43 2.46906e-05
68 *65:14 *163:20 5.30871e-05
69 *83:22 *163:69 0.000138438
70 *85:8 *163:83 0.000106609
71 *89:10 *163:69 2.29461e-05
72 *100:10 *4540:A2 8.48502e-06
73 *128:26 *163:20 0
74 *128:26 *163:30 0.000124219
75 *128:26 *163:43 0.000185221
76 *130:10 *163:43 7.35193e-06
77 *158:52 *4530:B2 9.67842e-05
*RES
1 *4463:Y *163:10 41.7079 
2 *163:10 *163:14 16.0979 
3 *163:14 *163:20 48.1043 
4 *163:20 *163:30 35.1786 
5 *163:30 *4574:A1 23 
6 *163:30 *163:43 35.2407 
7 *163:43 *4576:A3 23 
8 *163:43 *163:52 30.5329 
9 *163:52 *4528:A 24.3982 
10 *163:52 *163:69 35.8621 
11 *163:69 *163:75 34.0779 
12 *163:75 *163:77 5.77929 
13 *163:77 *163:83 34.0986 
14 *163:83 *4497:A1 23 
15 *163:77 *4552:B2 38 
16 *163:75 *4530:B2 39.0979 
17 *163:14 *4540:A2 38.8671 
*END

*D_NET *164 0.00727502
*CONN
*I *4547:A1 I *D sky130_fd_sc_hd__a211o_1
*I *4544:A2 I *D sky130_fd_sc_hd__a221o_1
*I *4465:B I *D sky130_fd_sc_hd__nand2_1
*I *4568:A I *D sky130_fd_sc_hd__or3_1
*I *4464:Y O *D sky130_fd_sc_hd__a21oi_2
*CAP
1 *4547:A1 0.000372589
2 *4544:A2 1.04533e-05
3 *4465:B 8.667e-05
4 *4568:A 2.30556e-05
5 *4464:Y 8.23109e-05
6 *164:32 0.000556337
7 *164:19 0.00116485
8 *164:6 0.00101025
9 *4465:B *173:100 0.000182832
10 *4465:B *224:28 7.94612e-05
11 *4544:A2 *238:36 1.46586e-05
12 *4547:A1 *173:154 0
13 *4547:A1 *186:57 7.76364e-06
14 *4547:A1 *224:58 0
15 *164:19 *4502:A 4.5051e-05
16 *164:19 *173:119 0.000702825
17 *164:19 *179:12 9.64022e-05
18 *164:19 *179:38 6.07611e-06
19 *164:32 *179:38 0.000119828
20 *164:32 *224:58 0
21 *4456:A *4465:B 2.96912e-05
22 *4547:B1 *4547:A1 5.90675e-06
23 *4547:C1 *4547:A1 9.72057e-06
24 *4568:C *164:6 9.58714e-05
25 *65:6 *164:19 7.15126e-05
26 *65:14 *164:19 0.000141191
27 *77:31 *4547:A1 7.81073e-05
28 *102:14 *4547:A1 0.000200422
29 *102:14 *164:19 9.39262e-05
30 *102:14 *164:32 3.58196e-05
31 *103:10 *4547:A1 0.000323812
32 *105:29 *164:6 0.000100069
33 *105:29 *164:19 0.000660613
34 *105:35 *4547:A1 7.15126e-05
35 *106:10 *4547:A1 8.16253e-05
36 *107:12 *4547:A1 1.69668e-05
37 *156:10 *164:32 0.000329214
38 *158:16 *164:6 3.05357e-05
39 *158:16 *164:19 0.000199445
40 *161:86 *4547:A1 0.000137651
*RES
1 *4464:Y *164:6 25.0507 
2 *164:6 *4568:A 23.4971 
3 *164:6 *164:19 37.2886 
4 *164:19 *4465:B 40.5479 
5 *164:19 *164:32 5.42714 
6 *164:32 *4544:A2 38.1709 
7 *164:32 *4547:A1 48.6679 
*END

*D_NET *165 0.0031367
*CONN
*I *4466:C1 I *D sky130_fd_sc_hd__o211a_1
*I *4465:Y O *D sky130_fd_sc_hd__nand2_1
*CAP
1 *4466:C1 0.000161483
2 *4465:Y 0.00027081
3 *165:8 0.000432293
4 *4466:C1 *177:52 0.000786258
5 *4466:C1 *224:18 0.000704525
6 *165:8 *173:154 0.00058599
7 *102:14 *165:8 0.000195345
*RES
1 *4465:Y *165:8 45.8921 
2 *165:8 *4466:C1 46.7207 
*END

*D_NET *166 0.00534788
*CONN
*I *4484:B2 I *D sky130_fd_sc_hd__o32a_1
*I *4466:X O *D sky130_fd_sc_hd__o211a_1
*CAP
1 *4484:B2 0
2 *4466:X 0.000104136
3 *166:22 0.000469664
4 *166:16 0.0013195
5 *166:8 0.00095397
6 *166:8 *177:52 9.28078e-06
7 *166:16 *4532:B2 1.83564e-05
8 *166:22 *4478:B1 9.41704e-05
9 *166:22 *4484:A1 2.42898e-05
10 *166:22 *175:8 2.02517e-05
11 *166:22 *184:10 0.000139357
12 *166:22 *186:37 0.000410339
13 *166:22 *240:58 0.000957565
14 *77:23 *166:16 0.000207726
15 *92:8 *166:16 0
16 *94:42 *166:8 0
17 *143:65 *166:16 0.00026506
18 *151:12 *166:8 3.96053e-05
19 *161:29 *166:16 0.000164364
20 *161:31 *166:16 0.000120857
21 *161:35 *166:16 2.93845e-05
*RES
1 *4466:X *166:8 39.9057 
2 *166:8 *166:16 46.5507 
3 *166:16 *166:22 29.935 
4 *166:22 *4484:B2 23 
*END

*D_NET *167 0.0215297
*CONN
*I *4472:A2 I *D sky130_fd_sc_hd__a31o_1
*I *4513:A2 I *D sky130_fd_sc_hd__o22a_1
*I *4524:A1 I *D sky130_fd_sc_hd__o211a_1
*I *4565:A I *D sky130_fd_sc_hd__or4b_1
*I *4559:A2 I *D sky130_fd_sc_hd__a32o_1
*I *4540:B1 I *D sky130_fd_sc_hd__o221a_1
*I *4467:Y O *D sky130_fd_sc_hd__nand2_4
*CAP
1 *4472:A2 7.09181e-05
2 *4513:A2 0
3 *4524:A1 0
4 *4565:A 0
5 *4559:A2 0
6 *4540:B1 0
7 *4467:Y 0.000239691
8 *167:75 0.00131908
9 *167:56 0.00158731
10 *167:41 0.00280475
11 *167:34 0.000719224
12 *167:26 0.00293129
13 *167:20 0.00171013
14 *167:14 0.000764939
15 *167:12 0.0014985
16 *167:8 0.000440582
17 *4472:A2 *4472:B1 5.3304e-05
18 *4472:A2 *172:10 3.22879e-05
19 *4472:A2 *230:151 4.5051e-05
20 *167:8 *219:16 0.000127498
21 *167:8 *222:10 0
22 *167:8 *222:12 0
23 *167:12 *232:6 0.000134065
24 *167:14 *232:6 1.40958e-05
25 *167:14 *232:12 2.30292e-05
26 *167:20 *4513:A1 0
27 *167:20 *168:27 0.0012132
28 *167:20 *219:92 2.93845e-05
29 *167:20 *232:12 5.3468e-05
30 *167:26 *168:27 3.61695e-05
31 *167:26 *179:57 4.79641e-05
32 *167:34 *4540:A1 0
33 *167:34 *195:46 0.000678668
34 *167:41 *186:45 3.55887e-05
35 *167:56 *186:45 2.70366e-05
36 *167:56 *186:53 7.43025e-06
37 *167:56 *188:56 0.000489755
38 *167:56 *188:67 5.50049e-05
39 *167:56 *194:23 0.000362233
40 *167:75 *193:61 0
41 *167:75 *219:12 0
42 *167:75 *219:16 0
43 *167:75 *219:92 5.0135e-05
44 *167:75 *227:10 0
45 *167:75 *232:37 0
46 *4524:C1 *167:26 0.000618478
47 *4554:C *167:75 0
48 *66:38 *167:56 0.000490218
49 *73:10 *167:75 6.33614e-05
50 *75:10 *167:20 0.000128391
51 *98:10 *167:34 3.31683e-05
52 *111:10 *167:26 9.36522e-05
53 *113:10 *167:41 0
54 *114:12 *167:41 0
55 *115:10 *167:41 7.91596e-05
56 *117:10 *167:56 0.000113153
57 *149:20 *167:20 0.00102139
58 *149:20 *167:26 0.000957554
59 *150:10 *167:75 3.47781e-05
60 *150:20 *167:75 7.20518e-05
61 *153:10 *167:75 0
62 *158:28 *167:41 0.00022255
*RES
1 *4467:Y *167:8 43.075 
2 *167:8 *167:12 18.9564 
3 *167:12 *167:14 1.09786 
4 *167:14 *167:20 24.0079 
5 *167:20 *167:26 39.4636 
6 *167:26 *167:34 27.8636 
7 *167:34 *4540:B1 23 
8 *167:26 *167:41 23.3864 
9 *167:41 *4559:A2 38 
10 *167:41 *167:56 46.5893 
11 *167:56 *4565:A 23 
12 *167:20 *4524:A1 23 
13 *167:14 *4513:A2 23 
14 *167:12 *167:75 35.5693 
15 *167:75 *4472:A2 39.5743 
*END

*D_NET *168 0.0100626
*CONN
*I *4472:A3 I *D sky130_fd_sc_hd__a31o_1
*I *4525:A2 I *D sky130_fd_sc_hd__a2111o_1
*I *4524:A2 I *D sky130_fd_sc_hd__o211a_1
*I *4496:C1 I *D sky130_fd_sc_hd__o211a_1
*I *4468:Y O *D sky130_fd_sc_hd__nand2b_4
*CAP
1 *4472:A3 0
2 *4525:A2 0.000135662
3 *4524:A2 0
4 *4496:C1 0
5 *4468:Y 0.000305855
6 *168:51 0.00103255
7 *168:36 0.00148513
8 *168:27 0.000648297
9 *168:21 0.00129702
10 *168:10 0.000331808
11 *168:8 0.000305855
12 *4525:A2 *4511:A3 0.000182585
13 *4525:A2 *4525:B1 4.09412e-06
14 *4525:A2 *181:34 3.70094e-05
15 *4525:A2 *232:20 0.000111853
16 *168:8 *193:29 0
17 *168:8 *195:59 6.07611e-06
18 *168:8 *223:32 0
19 *168:8 *228:39 5.26204e-05
20 *168:21 *181:34 0.000244526
21 *168:21 *190:21 0.000485452
22 *168:21 *193:16 5.29672e-05
23 *168:21 *228:20 0.000502818
24 *168:21 *230:56 0
25 *168:27 *179:57 3.91386e-05
26 *168:36 *4511:A3 0.000174682
27 *168:36 *181:34 0.000192096
28 *168:36 *228:14 7.68676e-05
29 *168:36 *228:20 4.98647e-05
30 *168:51 *4518:C1 0
31 *168:51 *4525:B1 1.6374e-05
32 *168:51 *172:10 3.71369e-05
33 *168:51 *174:21 4.6323e-05
34 *168:51 *174:34 1.94685e-05
35 *168:51 *228:14 0
36 *168:51 *230:151 0.000139352
37 *4516:C_N *168:51 0
38 *4519:B1 *168:51 5.3304e-05
39 *76:8 *168:51 0.00074645
40 *161:20 *168:51 0
41 *167:20 *168:27 0.0012132
42 *167:26 *168:27 3.61695e-05
*RES
1 *4468:Y *168:8 43.7793 
2 *168:8 *168:10 15 
3 *168:10 *4496:C1 23 
4 *168:10 *168:21 26.5171 
5 *168:21 *168:27 29.4586 
6 *168:27 *4524:A2 23 
7 *168:21 *168:36 6.70107 
8 *168:36 *4525:A2 41.4904 
9 *168:36 *168:51 36.4704 
10 *168:51 *4472:A3 23 
*END

*D_NET *169 0.0118209
*CONN
*I *4536:A I *D sky130_fd_sc_hd__and3_4
*I *4530:A2 I *D sky130_fd_sc_hd__a32o_1
*I *4562:B I *D sky130_fd_sc_hd__or3_1
*I *4515:B1 I *D sky130_fd_sc_hd__a22o_4
*I *4469:Y O *D sky130_fd_sc_hd__nand2_2
*CAP
1 *4536:A 0.000438724
2 *4530:A2 0
3 *4562:B 4.25104e-05
4 *4515:B1 0.000312564
5 *4469:Y 0.000351616
6 *169:50 0.000706055
7 *169:46 0.00114478
8 *169:44 0.000878254
9 *169:16 0.000580796
10 *169:10 0.00145559
11 *4515:B1 *4475:A 0.000182826
12 *4515:B1 *4515:B2 2.32004e-05
13 *4515:B1 *4563:A1 0
14 *4515:B1 *186:12 0.00033669
15 *4515:B1 *230:151 0.000168744
16 *4515:B1 *232:37 0.000115279
17 *4515:B1 *236:27 0.000143655
18 *4536:A *4536:B 0
19 *4536:A *217:8 0.000141888
20 *4562:B *187:8 5.50049e-05
21 *169:10 *4482:A 0.000181919
22 *169:10 *4648:A 0.000418557
23 *169:10 *170:46 7.13587e-05
24 *169:10 *232:37 0.000216721
25 *169:16 *4563:A1 0
26 *169:16 *4648:A 3.47781e-05
27 *169:16 *232:37 0.000186591
28 *169:44 *212:8 0.00194797
29 *4515:A2 *4515:B1 5.50106e-05
30 *64:41 *4536:A 4.67444e-05
31 *69:27 *4536:A 6.22095e-05
32 *77:6 *4515:B1 6.91235e-05
33 *87:12 *169:50 0.000504537
34 *119:8 *4515:B1 1.01436e-05
35 *119:8 *169:16 0.000166522
36 *150:10 *169:10 0
37 *157:72 *4536:A 0.000137842
38 *157:72 *169:50 0.000632713
*RES
1 *4469:Y *169:10 47.2593 
2 *169:10 *169:16 5.84143 
3 *169:16 *4515:B1 48.295 
4 *169:16 *4562:B 38.6214 
5 *169:10 *169:44 37.0607 
6 *169:44 *169:46 15 
7 *169:46 *169:50 32.4 
8 *169:50 *4530:A2 23 
9 *169:46 *4536:A 46.5757 
*END

*D_NET *170 0.00798099
*CONN
*I *4508:A1 I *D sky130_fd_sc_hd__a32o_1
*I *4515:B2 I *D sky130_fd_sc_hd__a22o_4
*I *4509:C I *D sky130_fd_sc_hd__and3_1
*I *4470:X O *D sky130_fd_sc_hd__or2_4
*CAP
1 *4508:A1 0
2 *4515:B2 0.000231086
3 *4509:C 0
4 *4470:X 0
5 *170:46 0.00137708
6 *170:18 0.000530431
7 *170:8 0.00142391
8 *170:6 0.00203947
9 *4515:B2 *222:8 1.24376e-05
10 *4515:B2 *236:14 5.70419e-05
11 *4515:B2 *236:27 1.22822e-05
12 *170:8 *230:22 0
13 *170:8 *236:10 0
14 *170:8 *236:27 0
15 *170:18 *222:10 0.000620089
16 *170:18 *230:22 0
17 *170:18 *230:24 0
18 *170:18 *236:10 3.97374e-05
19 *170:46 *4482:A 6.91178e-05
20 *170:46 *4495:B 0.000148524
21 *170:46 *182:8 0.000430002
22 *170:46 *195:10 3.17516e-05
23 *170:46 *232:61 0.000223698
24 *170:46 *236:27 0
25 *4508:A3 *170:46 0.000141954
26 *4508:B1 *170:46 9.58714e-05
27 *4515:A2 *4515:B2 0.000185434
28 *4515:A2 *170:18 0
29 *4515:B1 *4515:B2 2.32004e-05
30 *69:27 *170:46 2.93747e-05
31 *71:10 *170:18 0.000187129
32 *152:21 *170:8 0
33 *152:21 *170:46 0
34 *169:10 *170:46 7.13587e-05
*RES
1 *4470:X *170:6 38 
2 *170:6 *170:8 12.1179 
3 *170:8 *170:18 27.5529 
4 *170:18 *4509:C 23 
5 *170:8 *4515:B2 42.9507 
6 *170:6 *170:46 40.6857 
7 *170:46 *4508:A1 23 
*END

*D_NET *171 0.00221627
*CONN
*I *4472:B1 I *D sky130_fd_sc_hd__a31o_1
*I *4471:X O *D sky130_fd_sc_hd__a41o_1
*CAP
1 *4472:B1 0.000220637
2 *4471:X 0.000298742
3 *171:8 0.000519379
4 *4472:B1 *230:143 0.00028999
5 *4472:B1 *230:151 0.000228001
6 *171:8 *222:10 0.000561346
7 *4472:A2 *4472:B1 5.3304e-05
8 *71:10 *171:8 2.54046e-05
9 *153:8 *4472:B1 1.94693e-05
10 *153:10 *171:8 0
*RES
1 *4471:X *171:8 45.54 
2 *171:8 *4472:B1 44.3386 
*END

*D_NET *172 0.00261233
*CONN
*I *4563:S I *D sky130_fd_sc_hd__mux2_1
*I *4475:A I *D sky130_fd_sc_hd__nand2_1
*I *4472:X O *D sky130_fd_sc_hd__a31o_1
*CAP
1 *4563:S 0.000155106
2 *4475:A 0.00010284
3 *4472:X 0.000234272
4 *172:10 0.000492218
5 *4475:A *186:12 0.000144067
6 *4563:S *232:37 0.000193314
7 *172:10 *230:151 9.24795e-06
8 *172:10 *232:37 2.22269e-05
9 *4472:A2 *172:10 3.22879e-05
10 *4515:B1 *4475:A 0.000182826
11 *77:6 *4475:A 0.000438462
12 *150:10 *4563:S 0.000404047
13 *150:10 *172:10 0.000164282
14 *168:51 *172:10 3.71369e-05
*RES
1 *4472:X *172:10 42.3086 
2 *172:10 *4475:A 42.9093 
3 *172:10 *4563:S 43.4271 
*END

*D_NET *173 0.0304687
*CONN
*I *4563:A1 I *D sky130_fd_sc_hd__mux2_1
*I *4475:B I *D sky130_fd_sc_hd__nand2_1
*I *4521:C1 I *D sky130_fd_sc_hd__o2111a_1
*I *4488:A I *D sky130_fd_sc_hd__nor2_4
*I *4479:B I *D sky130_fd_sc_hd__nor2_4
*I *4502:B I *D sky130_fd_sc_hd__nand2_2
*I *4572:A2 I *D sky130_fd_sc_hd__a311o_1
*I *4543:A1 I *D sky130_fd_sc_hd__a31o_1
*I *4551:D1 I *D sky130_fd_sc_hd__o2111a_1
*I *4474:A I *D sky130_fd_sc_hd__inv_1
*I *4473:X O *D sky130_fd_sc_hd__mux2_8
*CAP
1 *4563:A1 0.000577811
2 *4475:B 1.49804e-05
3 *4521:C1 0
4 *4488:A 0
5 *4479:B 0
6 *4502:B 0
7 *4572:A2 0
8 *4543:A1 0
9 *4551:D1 0
10 *4474:A 1.02776e-05
11 *4473:X 0.000110774
12 *173:166 0.00121782
13 *173:154 0.000684428
14 *173:133 0.000413607
15 *173:119 0.000528791
16 *173:110 0.000543499
17 *173:104 0.000764734
18 *173:100 0.000416362
19 *173:94 0.00194384
20 *173:81 0.00115241
21 *173:77 0.00115181
22 *173:63 0.000948501
23 *173:61 0.000467218
24 *173:49 0.00120887
25 *173:38 0.000460515
26 *173:30 0.00129297
27 *173:14 0.00219839
28 *173:8 0.00134981
29 *4474:A *4511:A3 2.35426e-05
30 *4474:A *227:22 2.35426e-05
31 *4475:B *175:8 5.50106e-05
32 *4563:A1 *174:34 8.67978e-05
33 *4563:A1 *215:16 0
34 *4563:A1 *230:151 0
35 *173:30 *4449:C 0.000400204
36 *173:30 *4511:B1 1.38616e-05
37 *173:30 *227:16 7.91518e-05
38 *173:30 *232:37 6.35385e-05
39 *173:38 *4511:A1 7.21237e-05
40 *173:38 *4525:B1 7.461e-05
41 *173:49 *4511:A1 4.6318e-06
42 *173:49 *4525:B1 2.3529e-05
43 *173:49 *174:21 4.96264e-05
44 *173:61 *4510:A2 0.0007453
45 *173:61 *4552:A3 0.000180224
46 *173:61 *4552:B1 0.000221997
47 *173:61 *176:14 0.000163361
48 *173:61 *182:37 0.000123506
49 *173:61 *198:12 8.68903e-05
50 *173:77 *176:6 3.89383e-05
51 *173:77 *176:14 1.60667e-05
52 *173:77 *219:67 0.000163823
53 *173:77 *227:30 0.00036719
54 *173:81 *238:10 2.64616e-05
55 *173:94 *224:28 8.06804e-06
56 *173:100 *224:28 9.55012e-05
57 *173:104 *4502:A 8.57765e-05
58 *173:104 *179:12 9.06291e-05
59 *173:104 *224:58 4.6318e-06
60 *173:110 *4502:A 1.58805e-05
61 *173:110 *4505:A 5.97178e-05
62 *173:110 *4542:B1 4.99753e-06
63 *173:110 *179:12 9.60874e-05
64 *173:110 *229:92 0
65 *173:119 *4502:A 0.000618478
66 *173:133 *194:10 9.28945e-05
67 *173:154 *4488:B 9.32716e-05
68 *173:154 *4548:A1 4.13945e-05
69 *173:154 *186:57 0.000104222
70 *173:154 *224:20 0.000211979
71 *173:154 *224:28 0.000349386
72 *173:154 *224:80 0.000493399
73 *173:166 *174:21 2.84912e-05
74 *173:166 *174:34 0.000533293
75 *173:166 *179:85 0.000133656
76 *173:166 *230:151 0
77 *173:166 *232:37 0
78 *4449:B *173:30 2.4754e-05
79 *4465:B *173:100 0.000182832
80 *4515:B1 *4563:A1 0
81 *4543:A2 *173:110 3.22879e-05
82 *4547:A1 *173:154 0
83 *4551:A1 *173:94 6.09117e-05
84 *4551:A2 *173:81 0.000269775
85 *4551:A2 *173:94 5.67685e-05
86 *4551:C1 *173:81 0.000110389
87 *4555:B1 *173:133 0.000180218
88 *4563:A0 *4563:A1 5.3304e-05
89 *4572:A3 *173:133 3.85196e-05
90 *4572:C1 *173:133 2.4754e-05
91 *66:38 *173:154 0.000271401
92 *68:8 *173:110 7.03766e-05
93 *73:10 *173:30 4.75206e-05
94 *74:8 *173:61 2.93747e-05
95 *75:10 *173:30 0
96 *75:10 *173:49 4.03062e-05
97 *75:10 *173:166 2.76611e-06
98 *77:6 *4475:B 5.50106e-05
99 *83:22 *173:77 0.000136486
100 *102:8 *173:110 5.25848e-05
101 *102:14 *173:154 0
102 *109:10 *173:81 4.75206e-05
103 *109:10 *173:94 1.32314e-05
104 *110:6 *173:81 1.57571e-05
105 *112:8 *173:38 0.000312342
106 *120:8 *4563:A1 0.000315857
107 *125:8 *173:133 3.30536e-05
108 *126:10 *173:110 0.000140958
109 *127:8 *173:110 0
110 *143:33 *173:61 0.000393742
111 *143:54 *173:77 4.56447e-05
112 *145:22 *173:30 2.32004e-05
113 *149:6 *173:30 0.000576269
114 *149:10 *173:30 7.6144e-05
115 *149:14 *173:30 1.01436e-05
116 *149:28 *173:110 3.22879e-05
117 *154:27 *173:110 0.000227497
118 *155:14 *173:30 0.000673612
119 *155:20 *173:77 0.000438701
120 *156:10 *173:100 3.45717e-05
121 *157:68 *173:77 0.000132225
122 *158:16 *173:119 4.6595e-05
123 *161:39 *173:77 6.25829e-05
124 *161:104 *173:133 5.3304e-05
125 *163:83 *173:61 1.12487e-05
126 *164:19 *173:119 0.000702825
127 *165:8 *173:154 0.00058599
128 *169:16 *4563:A1 0
*RES
1 *4473:X *173:8 39.9057 
2 *173:8 *173:14 35.7661 
3 *173:14 *173:30 40.6961 
4 *173:30 *173:38 35.7379 
5 *173:38 *4474:A 38.2745 
6 *173:38 *173:49 2.25786 
7 *173:49 *173:61 46.7371 
8 *173:61 *173:63 15 
9 *173:63 *173:77 35.01 
10 *173:77 *173:81 20.3857 
11 *173:81 *4551:D1 23 
12 *173:81 *173:94 13.5471 
13 *173:94 *173:100 6.25571 
14 *173:100 *173:104 17.61 
15 *173:104 *173:110 27.5529 
16 *173:110 *4543:A1 23 
17 *173:104 *173:119 22.7679 
18 *173:119 *173:133 38.1821 
19 *173:133 *4572:A2 23 
20 *173:119 *4502:B 23 
21 *173:100 *4479:B 23 
22 *173:94 *173:154 49.1607 
23 *173:154 *4488:A 23 
24 *173:63 *4521:C1 23 
25 *173:49 *173:166 14.935 
26 *173:166 *4475:B 38.6214 
27 *173:166 *4563:A1 49.2893 
*END

*D_NET *174 0.00463094
*CONN
*I *4562:C I *D sky130_fd_sc_hd__or3_1
*I *4514:A1_N I *D sky130_fd_sc_hd__a2bb2o_1
*I *4525:B1 I *D sky130_fd_sc_hd__a2111o_1
*I *4474:Y O *D sky130_fd_sc_hd__inv_1
*CAP
1 *4562:C 0
2 *4514:A1_N 0
3 *4525:B1 0.000344557
4 *4474:Y 9.41891e-05
5 *174:34 0.000787735
6 *174:21 0.000881082
7 *174:8 0.000532093
8 *4525:B1 *232:20 0.00015795
9 *174:8 *227:22 0.00011762
10 *174:34 *187:8 0.000198206
11 *4516:C_N *174:34 0
12 *4525:A2 *4525:B1 4.09412e-06
13 *4563:A1 *174:34 8.67978e-05
14 *76:8 *174:34 0.000371239
15 *77:10 *174:34 0
16 *112:8 *4525:B1 0.000263657
17 *168:51 *4525:B1 1.6374e-05
18 *168:51 *174:21 4.6323e-05
19 *168:51 *174:34 1.94685e-05
20 *173:38 *4525:B1 7.461e-05
21 *173:49 *4525:B1 2.3529e-05
22 *173:49 *174:21 4.96264e-05
23 *173:166 *174:21 2.84912e-05
24 *173:166 *174:34 0.000533293
*RES
1 *4474:Y *174:8 39.3361 
2 *174:8 *4525:B1 43.9657 
3 *174:8 *174:21 2.25786 
4 *174:21 *4514:A1_N 38 
5 *174:21 *174:34 35.6521 
6 *174:34 *4562:C 23 
*END

*D_NET *175 0.00164607
*CONN
*I *4484:B1 I *D sky130_fd_sc_hd__o32a_1
*I *4475:Y O *D sky130_fd_sc_hd__nand2_1
*CAP
1 *4484:B1 0
2 *4475:Y 0.000236311
3 *175:8 0.000236311
4 *175:8 *186:12 0.000832346
5 *175:8 *186:37 2.45549e-06
6 *4475:B *175:8 5.50106e-05
7 *77:6 *175:8 0.00026338
8 *166:22 *175:8 2.02517e-05
*RES
1 *4475:Y *175:8 32.6943 
2 *175:8 *4484:B1 23 
*END

*D_NET *176 0.00600198
*CONN
*I *4521:D1 I *D sky130_fd_sc_hd__o2111a_1
*I *4520:A1 I *D sky130_fd_sc_hd__a22o_1
*I *4478:A2 I *D sky130_fd_sc_hd__a21oi_1
*I *4476:Y O *D sky130_fd_sc_hd__nand2_2
*CAP
1 *4521:D1 0
2 *4520:A1 0
3 *4478:A2 0
4 *4476:Y 0.000125302
5 *176:27 0.000601663
6 *176:14 0.00120375
7 *176:6 0.000727392
8 *176:6 *4476:A 0.00010018
9 *176:6 *219:59 3.59635e-05
10 *176:6 *219:67 6.22712e-05
11 *176:6 *227:22 0.000337375
12 *176:6 *227:30 9.32118e-05
13 *176:14 *195:24 0.000241684
14 *176:14 *198:12 0.000245988
15 *176:14 *227:30 1.51028e-05
16 *176:27 *4536:B 3.56214e-05
17 *176:27 *182:16 0
18 *176:27 *195:14 4.79612e-05
19 *176:27 *195:24 0.000238142
20 *176:27 *198:12 0.000151501
21 *176:27 *240:66 0.000141879
22 *4507:B *176:27 0.000310647
23 *64:24 *176:27 6.99589e-05
24 *64:28 *176:27 0
25 *150:26 *176:14 0.000144894
26 *158:62 *176:6 9.67842e-05
27 *163:75 *176:14 0.000164282
28 *163:77 *176:14 0.000428691
29 *163:83 *176:14 0.000163361
30 *173:61 *176:14 0.000163361
31 *173:77 *176:6 3.89383e-05
32 *173:77 *176:14 1.60667e-05
*RES
1 *4476:Y *176:6 27.8782 
2 *176:6 *176:14 32.4932 
3 *176:14 *4478:A2 38 
4 *176:14 *176:27 30.2457 
5 *176:27 *4520:A1 23 
6 *176:6 *4521:D1 23 
*END

*D_NET *177 0.0252154
*CONN
*I *4574:A2 I *D sky130_fd_sc_hd__a22o_1
*I *4478:B1 I *D sky130_fd_sc_hd__a21oi_1
*I *4518:A2 I *D sky130_fd_sc_hd__a211o_1
*I *4517:B I *D sky130_fd_sc_hd__nor2_1
*I *4552:B1 I *D sky130_fd_sc_hd__a32o_1
*I *4511:A2 I *D sky130_fd_sc_hd__o31ai_1
*I *4528:B I *D sky130_fd_sc_hd__nand2_1
*I *4573:A I *D sky130_fd_sc_hd__nand2_1
*I *4576:B1 I *D sky130_fd_sc_hd__a311o_1
*I *4477:Y O *D sky130_fd_sc_hd__a21oi_4
*CAP
1 *4574:A2 0
2 *4478:B1 0.000227185
3 *4518:A2 2.53239e-05
4 *4517:B 0
5 *4552:B1 0.00024834
6 *4511:A2 0
7 *4528:B 2.7723e-05
8 *4573:A 1.01911e-05
9 *4576:B1 0
10 *4477:Y 0.000848114
11 *177:93 2.53239e-05
12 *177:77 0.000981409
13 *177:71 0.00141486
14 *177:69 0.00028806
15 *177:67 0.00215665
16 *177:52 0.00277
17 *177:35 0.000986935
18 *177:26 0.000302071
19 *177:14 0.000298987
20 *177:10 0.00111068
21 *177:6 0.0019009
22 *4478:B1 *4484:A1 9.41704e-05
23 *4478:B1 *180:10 2.42788e-05
24 *4478:B1 *182:20 0.0003911
25 *4552:B1 *4552:A3 7.54818e-05
26 *177:6 *230:68 0.000311554
27 *177:6 *234:63 0.00097753
28 *177:10 *218:16 0
29 *177:10 *230:91 0
30 *177:10 *238:36 3.47781e-05
31 *177:14 *4545:B 1.71983e-05
32 *177:14 *238:36 5.3304e-05
33 *177:26 *4576:A1 8.17116e-05
34 *177:26 *238:40 0.000135037
35 *177:52 *224:14 8.48502e-06
36 *177:52 *224:18 4.6595e-05
37 *177:67 *188:101 2.93619e-05
38 *177:69 *182:20 0.00024882
39 *177:71 *182:20 0.000400895
40 *177:71 *193:39 0.000398655
41 *177:77 *193:39 0.000235024
42 *177:77 *198:12 2.36844e-05
43 *4466:C1 *177:52 0.000786258
44 *4518:A1 *4518:A2 0.00014196
45 *4518:B1 *4518:A2 0.00014196
46 *4527:A1 *177:52 7.44257e-05
47 *4551:A1 *4528:B 0
48 *4576:C1 *4573:A 2.28308e-05
49 *4576:C1 *177:26 1.4345e-05
50 *4576:C1 *177:35 3.7877e-05
51 *4576:C1 *177:52 2.02872e-05
52 *4578:B *177:26 0.000231581
53 *4578:B *177:35 5.61255e-06
54 *64:96 *177:14 0.000179473
55 *64:96 *177:26 0.000158796
56 *65:25 *177:10 0.000642492
57 *80:8 *4478:B1 0.000179312
58 *80:8 *177:69 0.00018003
59 *81:12 *4478:B1 0.000161121
60 *128:26 *177:26 0.00013449
61 *151:12 *4528:B 0
62 *151:12 *177:52 1.09783e-05
63 *155:14 *177:77 0.00113496
64 *158:62 *177:71 1.78655e-05
65 *158:62 *177:77 7.56417e-05
66 *161:104 *177:10 0.000169449
67 *163:20 *177:10 0.000632348
68 *163:30 *177:10 0
69 *163:43 *177:14 0.000100061
70 *163:43 *177:26 2.07944e-05
71 *163:52 *177:26 2.77175e-05
72 *163:52 *177:35 9.41704e-05
73 *163:52 *177:52 0.00228272
74 *166:8 *177:52 9.28078e-06
75 *166:22 *4478:B1 9.41704e-05
76 *173:61 *4552:B1 0.000221997
*RES
1 *4477:Y *177:6 37.4379 
2 *177:6 *177:10 39.4429 
3 *177:10 *177:14 17.0507 
4 *177:14 *177:26 36.6079 
5 *177:26 *4576:B1 23 
6 *177:26 *177:35 1.595 
7 *177:35 *4573:A 23.4971 
8 *177:35 *177:52 49.1163 
9 *177:52 *4528:B 46.3211 
10 *177:52 *177:67 12.2635 
11 *177:67 *177:69 3.49036 
12 *177:69 *177:71 6.13143 
13 *177:71 *177:77 31.0846 
14 *177:77 *4511:A2 23 
15 *177:71 *4552:B1 42.1946 
16 *177:69 *177:93 15 
17 *177:93 *4517:B 23 
18 *177:93 *4518:A2 24.5743 
19 *177:67 *4478:B1 44.7011 
20 *177:14 *4574:A2 23 
*END

*D_NET *178 0.000419279
*CONN
*I *4484:A1 I *D sky130_fd_sc_hd__o32a_1
*I *4478:Y O *D sky130_fd_sc_hd__a21oi_1
*CAP
1 *4484:A1 0.000111184
2 *4478:Y 0.000111184
3 *4484:A1 *186:37 7.84515e-05
4 *4478:B1 *4484:A1 9.41704e-05
5 *166:22 *4484:A1 2.42898e-05
*RES
1 *4478:Y *4484:A1 48.5686 
*END

*D_NET *179 0.012446
*CONN
*I *4514:B2 I *D sky130_fd_sc_hd__a2bb2o_1
*I *4480:A I *D sky130_fd_sc_hd__inv_1
*I *4524:B1 I *D sky130_fd_sc_hd__o211a_1
*I *4556:A1 I *D sky130_fd_sc_hd__a211o_1
*I *4571:C1 I *D sky130_fd_sc_hd__o211a_1
*I *4542:B1 I *D sky130_fd_sc_hd__o311a_1
*I *4479:Y O *D sky130_fd_sc_hd__nor2_4
*CAP
1 *4514:B2 0
2 *4480:A 0
3 *4524:B1 0
4 *4556:A1 2.0995e-05
5 *4571:C1 0
6 *4542:B1 0.000157252
7 *4479:Y 0
8 *179:85 0.000612576
9 *179:72 0.000174426
10 *179:64 0.00168616
11 *179:57 0.000570291
12 *179:47 0.00253992
13 *179:38 0.00218008
14 *179:12 0.000502014
15 *179:6 0.00143338
16 *4542:B1 *229:92 2.96154e-05
17 *179:12 *224:58 0
18 *179:12 *229:92 9.53602e-05
19 *179:38 *224:58 0
20 *179:57 *195:30 0.000849107
21 *179:72 *4518:C1 2.35426e-05
22 *179:72 *193:39 0
23 *179:85 *228:12 0.000280928
24 *179:85 *232:37 0
25 *4524:C1 *179:57 5.50049e-05
26 *4542:C1 *4542:B1 7.52623e-05
27 *68:8 *4542:B1 3.70094e-05
28 *102:14 *179:12 8.24898e-05
29 *110:16 *4556:A1 1.14154e-05
30 *110:16 *179:38 2.93845e-05
31 *110:16 *179:47 0.00027183
32 *126:10 *4542:B1 6.07611e-06
33 *126:10 *179:12 6.07929e-05
34 *143:65 *179:57 0
35 *154:42 *4542:B1 2.62931e-05
36 *164:19 *179:12 9.64022e-05
37 *164:19 *179:38 6.07611e-06
38 *164:32 *179:38 0.000119828
39 *167:26 *179:57 4.79641e-05
40 *168:27 *179:57 3.91386e-05
41 *173:104 *179:12 9.06291e-05
42 *173:110 *4542:B1 4.99753e-06
43 *173:110 *179:12 9.60874e-05
44 *173:166 *179:85 0.000133656
*RES
1 *4479:Y *179:6 38 
2 *179:6 *179:12 9.36286 
3 *179:12 *4542:B1 41.2729 
4 *179:12 *4571:C1 38 
5 *179:6 *179:38 32.7521 
6 *179:38 *4556:A1 23.4971 
7 *179:38 *179:47 17.7729 
8 *179:47 *179:57 43.485 
9 *179:57 *4524:B1 23 
10 *179:47 *179:64 12.5321 
11 *179:64 *179:72 32.5323 
12 *179:72 *4480:A 23 
13 *179:64 *179:85 41.4343 
14 *179:85 *4514:B2 23 
*END

*D_NET *180 0.0018272
*CONN
*I *4484:A2 I *D sky130_fd_sc_hd__o32a_1
*I *4480:Y O *D sky130_fd_sc_hd__inv_1
*CAP
1 *4484:A2 0
2 *4480:Y 0.000535686
3 *180:10 0.000535686
4 *180:10 *4516:B 0.000113153
5 *180:10 *4518:C1 2.31916e-05
6 *180:10 *4519:B2 0
7 *180:10 *188:101 4.67998e-05
8 *4478:B1 *180:10 2.42788e-05
9 *4518:A1 *180:10 5.70419e-05
10 *4518:B1 *180:10 2.65879e-05
11 *80:8 *180:10 0.000353849
12 *81:12 *180:10 0.000110922
13 *161:20 *180:10 0
*RES
1 *4480:Y *180:10 48.4296 
2 *180:10 *4484:A2 38 
*END

*D_NET *181 0.0109186
*CONN
*I *4511:A3 I *D sky130_fd_sc_hd__o31ai_1
*I *4525:C1 I *D sky130_fd_sc_hd__a2111o_1
*I *4533:A I *D sky130_fd_sc_hd__nor2_2
*I *4553:B I *D sky130_fd_sc_hd__or3b_1
*I *4492:A1 I *D sky130_fd_sc_hd__o21a_1
*I *4491:A I *D sky130_fd_sc_hd__nor2_1
*I *4481:Y O *D sky130_fd_sc_hd__nor2_4
*CAP
1 *4511:A3 0.000252049
2 *4525:C1 0
3 *4533:A 0.000107573
4 *4553:B 8.95315e-05
5 *4492:A1 0.000347469
6 *4491:A 1.50079e-05
7 *4481:Y 0.000113837
8 *181:46 0.00106048
9 *181:38 0.000911684
10 *181:34 0.000540173
11 *181:23 0.00111317
12 *181:8 0.000654738
13 *4491:A *190:21 5.50049e-05
14 *4491:A *193:16 5.50049e-05
15 *4511:A3 *4476:A 0.000137651
16 *4511:A3 *4511:A1 1.5547e-05
17 *4511:A3 *227:22 0.000159235
18 *4533:A *194:46 0.000232142
19 *4533:A *220:98 0.000164291
20 *4553:B *194:46 0.000279936
21 *4553:B *220:98 0.00019747
22 *181:8 *190:12 0.000222104
23 *181:8 *230:56 0
24 *181:23 *190:12 1.01436e-05
25 *181:23 *191:10 5.36457e-05
26 *181:23 *230:56 0
27 *181:34 *230:56 0
28 *181:38 *219:38 2.64616e-05
29 *181:38 *219:42 4.6595e-05
30 *181:46 *219:42 9.45591e-05
31 *4474:A *4511:A3 2.35426e-05
32 *4525:A2 *4511:A3 0.000182585
33 *4525:A2 *181:34 3.70094e-05
34 *86:6 *181:46 0.000785362
35 *112:8 *181:38 0.000139346
36 *112:8 *181:46 0.00170982
37 *149:20 *4553:B 0
38 *155:14 *4511:A3 0.000474124
39 *161:58 *4533:A 0
40 *161:58 *4553:B 0
41 *168:21 *181:34 0.000244526
42 *168:36 *4511:A3 0.000174682
43 *168:36 *181:34 0.000192096
*RES
1 *4481:Y *181:8 40.9621 
2 *181:8 *4491:A 38.6214 
3 *181:8 *181:23 24.3007 
4 *181:23 *4492:A1 28.8621 
5 *181:23 *181:34 20.7793 
6 *181:34 *181:38 16.5743 
7 *181:38 *181:46 41.0379 
8 *181:46 *4553:B 41.6664 
9 *181:46 *4533:A 41.3143 
10 *181:38 *4525:C1 23 
11 *181:34 *4511:A3 45.9957 
*END

*D_NET *182 0.0140616
*CONN
*I *4506:B I *D sky130_fd_sc_hd__and3_4
*I *4483:B I *D sky130_fd_sc_hd__nor2_1
*I *4510:A2 I *D sky130_fd_sc_hd__a21oi_1
*I *4552:A3 I *D sky130_fd_sc_hd__a32o_1
*I *4482:X O *D sky130_fd_sc_hd__or2_4
*CAP
1 *4506:B 0.000482254
2 *4483:B 3.09382e-05
3 *4510:A2 0.00121568
4 *4552:A3 0.000200764
5 *4482:X 0.000581839
6 *182:37 0.0013229
7 *182:20 0.000826449
8 *182:16 0.00107632
9 *182:10 0.00100917
10 *182:8 0.000581839
11 *4483:B *183:10 2.93845e-05
12 *4506:B *217:28 9.74132e-05
13 *4510:A2 *219:8 0
14 *182:8 *217:28 9.84851e-05
15 *182:8 *253:10 0.000488848
16 *182:16 *188:101 0.000206568
17 *182:16 *198:12 2.24973e-05
18 *182:20 *188:101 0.000380665
19 *182:20 *198:12 0.000218725
20 *182:37 *193:39 8.94394e-05
21 *4478:B1 *182:20 0.0003911
22 *4508:A3 *182:8 7.88828e-05
23 *4512:B1 *4510:A2 8.2229e-05
24 *4552:B1 *4552:A3 7.54818e-05
25 *64:28 *182:16 0.000193379
26 *64:41 *182:16 6.16439e-05
27 *67:38 *4506:B 3.22879e-05
28 *69:8 *4506:B 0
29 *69:27 *182:8 0.00014196
30 *69:33 *182:16 5.75972e-05
31 *74:8 *4510:A2 0.000133912
32 *81:12 *182:16 0.000347123
33 *81:12 *182:20 8.22585e-05
34 *143:33 *4510:A2 0.000250295
35 *143:33 *4552:A3 0.000474118
36 *143:33 *182:37 0.000135037
37 *157:68 *4552:A3 3.44446e-05
38 *158:62 *182:20 0.000400895
39 *170:46 *182:8 0.000430002
40 *173:61 *4510:A2 0.0007453
41 *173:61 *4552:A3 0.000180224
42 *173:61 *182:37 0.000123506
43 *176:27 *182:16 0
44 *177:69 *182:20 0.00024882
45 *177:71 *182:20 0.000400895
*RES
1 *4482:X *182:8 38.8879 
2 *182:8 *182:10 15 
3 *182:10 *182:16 12.8843 
4 *182:16 *182:20 31.6957 
5 *182:20 *4552:A3 28.8829 
6 *182:20 *182:37 32.7757 
7 *182:37 *4510:A2 42.2436 
8 *182:16 *4483:B 38.6214 
9 *182:10 *4506:B 46.8243 
*END

*D_NET *183 0.00170565
*CONN
*I *4484:A3 I *D sky130_fd_sc_hd__o32a_1
*I *4516:B I *D sky130_fd_sc_hd__or3b_1
*I *4483:Y O *D sky130_fd_sc_hd__nor2_1
*CAP
1 *4484:A3 0
2 *4516:B 0.000255894
3 *4483:Y 0.000287321
4 *183:10 0.000543214
5 *4516:B *4519:B2 2.29192e-05
6 *4516:B *186:16 1.94522e-05
7 *183:10 *184:10 8.4047e-05
8 *183:10 *186:16 3.14214e-05
9 *183:10 *187:8 2.45549e-06
10 *4483:B *183:10 2.93845e-05
11 *77:23 *4516:B 0.000271476
12 *81:12 *4516:B 1.22803e-05
13 *81:12 *183:10 3.26321e-05
14 *180:10 *4516:B 0.000113153
*RES
1 *4483:Y *183:10 42.3086 
2 *183:10 *4516:B 42.9093 
3 *183:10 *4484:A3 38 
*END

*D_NET *184 0.00125134
*CONN
*I *4499:A1_N I *D sky130_fd_sc_hd__a2bb2o_1
*I *4484:X O *D sky130_fd_sc_hd__o32a_1
*CAP
1 *4499:A1_N 0
2 *4484:X 0.000256951
3 *184:10 0.000256951
4 *184:10 *187:14 0.000165583
5 *81:12 *184:10 0.000348447
6 *166:22 *184:10 0.000139357
7 *183:10 *184:10 8.4047e-05
*RES
1 *4484:X *184:10 44.2971 
2 *184:10 *4499:A1_N 38 
*END

*D_NET *185 0.00520307
*CONN
*I *4486:B1 I *D sky130_fd_sc_hd__o21ai_4
*I *4487:B1 I *D sky130_fd_sc_hd__o21a_1
*I *4485:X O *D sky130_fd_sc_hd__or2_4
*CAP
1 *4486:B1 1.51656e-05
2 *4487:B1 0.000294201
3 *4485:X 0
4 *185:12 0.0019554
5 *185:6 0.00164604
6 *4486:B1 *4487:A2 0
7 *4487:B1 *4487:A2 5.43443e-05
8 *185:12 *4487:A2 0.000131304
9 *185:12 *233:12 0
10 *185:12 *252:10 0
11 *4486:A1 *185:12 0.00010018
12 *54:25 *185:12 0.000846981
13 *54:33 *185:12 0
14 *54:65 *4486:B1 0
15 *54:65 *4487:B1 6.84574e-05
16 *54:65 *185:12 2.98648e-05
17 *63:8 *185:12 0
18 *162:8 *185:12 6.11286e-05
*RES
1 *4485:X *185:6 38 
2 *185:6 *185:12 49.5929 
3 *185:12 *4487:B1 27.8264 
4 *185:12 *4486:B1 23.4971 
*END

*D_NET *186 0.0221536
*CONN
*I *4532:A1 I *D sky130_fd_sc_hd__a22o_1
*I *4560:A1 I *D sky130_fd_sc_hd__a22o_1
*I *4488:B I *D sky130_fd_sc_hd__nor2_4
*I *4548:B2 I *D sky130_fd_sc_hd__a32o_1
*I *4564:B2 I *D sky130_fd_sc_hd__a2bb2o_1
*I *4577:B2 I *D sky130_fd_sc_hd__a32o_1
*I *4519:B2 I *D sky130_fd_sc_hd__a32o_1
*I *4486:Y O *D sky130_fd_sc_hd__o21ai_4
*CAP
1 *4532:A1 2.15849e-05
2 *4560:A1 0
3 *4488:B 0.000208712
4 *4548:B2 0
5 *4564:B2 0
6 *4577:B2 0.000265674
7 *4519:B2 0.000144575
8 *4486:Y 7.89401e-05
9 *186:78 0.000418595
10 *186:61 0.00148896
11 *186:57 0.00103893
12 *186:53 0.00107126
13 *186:45 0.000993429
14 *186:37 0.00115259
15 *186:16 0.00100591
16 *186:12 0.00238854
17 *186:8 0.00237203
18 *4519:B2 *188:101 1.23486e-05
19 *4577:B2 *188:27 0.000190218
20 *4577:B2 *234:134 0
21 *186:12 *221:20 5.41385e-05
22 *186:12 *236:14 0.000141154
23 *186:12 *236:27 0.000315857
24 *186:37 *240:8 9.14454e-05
25 *186:37 *240:58 7.43025e-06
26 *186:45 *4451:A 0.000102093
27 *186:45 *240:8 0.000193575
28 *186:53 *4560:B2 1.14154e-05
29 *186:53 *188:56 0.000196039
30 *186:53 *188:67 0.000107168
31 *186:61 *4548:A1 0.00014196
32 *186:61 *224:58 0.000576362
33 *186:61 *234:128 0.000114233
34 *186:78 *4564:A1_N 4.5e-05
35 *186:78 *188:27 0.000684861
36 *186:78 *215:8 0.000405895
37 *4475:A *186:12 0.000144067
38 *4484:A1 *186:37 7.84515e-05
39 *4515:B1 *186:12 0.00033669
40 *4516:B *4519:B2 2.29192e-05
41 *4516:B *186:16 1.94522e-05
42 *4516:C_N *4519:B2 0
43 *4547:A1 *186:57 7.76364e-06
44 *4559:A3 *186:45 0.000700216
45 *4564:A2_N *186:78 9.84794e-05
46 *64:16 *186:8 0.000110922
47 *66:38 *186:53 0.000182832
48 *77:6 *186:12 1.22822e-05
49 *77:10 *186:16 0
50 *77:31 *186:57 0.000191166
51 *77:31 *186:61 5.50049e-05
52 *107:8 *186:61 3.22879e-05
53 *107:12 *4488:B 0
54 *107:12 *186:57 0
55 *114:12 *186:45 6.70914e-05
56 *117:10 *186:45 0.000114083
57 *121:21 *186:78 8.50366e-05
58 *130:10 *4577:B2 0
59 *146:10 *186:12 9.2779e-05
60 *150:32 *186:37 0.00111093
61 *150:32 *186:45 0.000192031
62 *161:20 *4519:B2 0
63 *161:80 *186:45 0.000914079
64 *166:22 *186:37 0.000410339
65 *167:41 *186:45 3.55887e-05
66 *167:56 *186:45 2.70366e-05
67 *167:56 *186:53 7.43025e-06
68 *173:154 *4488:B 9.32716e-05
69 *173:154 *186:57 0.000104222
70 *175:8 *186:12 0.000832346
71 *175:8 *186:37 2.45549e-06
72 *180:10 *4519:B2 0
73 *183:10 *186:16 3.14214e-05
*RES
1 *4486:Y *186:8 39.5536 
2 *186:8 *186:12 49.9243 
3 *186:12 *186:16 16.9057 
4 *186:16 *4519:B2 40.2579 
5 *186:16 *186:37 34.0571 
6 *186:37 *186:45 46.9236 
7 *186:45 *186:53 25.1914 
8 *186:53 *186:57 19.7229 
9 *186:57 *186:61 33.2493 
10 *186:61 *4577:B2 42.06 
11 *186:61 *186:78 27.6771 
12 *186:78 *4564:B2 23 
13 *186:57 *4548:B2 23 
14 *186:53 *4488:B 42.0186 
15 *186:45 *4560:A1 23 
16 *186:37 *4532:A1 23.4971 
*END

*D_NET *187 0.00777845
*CONN
*I *4499:A2_N I *D sky130_fd_sc_hd__a2bb2o_1
*I *4504:A I *D sky130_fd_sc_hd__and2_4
*I *4487:X O *D sky130_fd_sc_hd__o21a_1
*CAP
1 *4499:A2_N 0
2 *4504:A 0.000725383
3 *4487:X 0
4 *187:14 0.000912838
5 *187:8 0.0021862
6 *187:4 0.00199875
7 *4504:A *188:82 0.00108629
8 *4504:A *188:101 5.3304e-05
9 *4504:A *198:12 5.50106e-05
10 *4562:B *187:8 5.50049e-05
11 *81:12 *187:14 1.22803e-05
12 *120:8 *4504:A 0.000286571
13 *120:8 *187:14 4.05745e-05
14 *174:34 *187:8 0.000198206
15 *183:10 *187:8 2.45549e-06
16 *184:10 *187:14 0.000165583
*RES
1 *4487:X *187:4 23 
2 *187:4 *187:8 48.495 
3 *187:8 *187:14 18.7079 
4 *187:14 *4504:A 41.2493 
5 *187:14 *4499:A2_N 23 
*END

*D_NET *188 0.0159695
*CONN
*I *4519:A1 I *D sky130_fd_sc_hd__a32o_1
*I *4499:B1 I *D sky130_fd_sc_hd__a2bb2o_1
*I *4532:B2 I *D sky130_fd_sc_hd__a22o_1
*I *4560:B2 I *D sky130_fd_sc_hd__a22o_1
*I *4548:A1 I *D sky130_fd_sc_hd__a32o_1
*I *4577:A1 I *D sky130_fd_sc_hd__a32o_1
*I *4489:A I *D sky130_fd_sc_hd__inv_1
*I *4488:Y O *D sky130_fd_sc_hd__nor2_4
*CAP
1 *4519:A1 0
2 *4499:B1 0
3 *4532:B2 0.000171434
4 *4560:B2 2.0995e-05
5 *4548:A1 0.000510888
6 *4577:A1 0
7 *4489:A 4.39902e-06
8 *4488:Y 0.000592562
9 *188:101 0.000496722
10 *188:82 0.000863661
11 *188:67 0.00146801
12 *188:56 0.00104347
13 *188:41 0.000782225
14 *188:27 0.000928526
15 *188:10 0.00134699
16 *4548:A1 *224:80 0.000296965
17 *188:27 *4564:A1_N 0.000296438
18 *188:27 *215:8 8.06804e-06
19 *188:101 *198:12 0.000592915
20 *4504:A *188:82 0.00108629
21 *4504:A *188:101 5.3304e-05
22 *4519:B2 *188:101 1.23486e-05
23 *4564:A2_N *188:27 0
24 *4564:B1 *4489:A 2.97706e-05
25 *4564:B1 *188:10 0.000995703
26 *4564:B1 *188:27 1.43933e-05
27 *4577:B2 *188:27 0.000190218
28 *66:38 *4548:A1 6.48142e-05
29 *66:38 *188:41 0.000201176
30 *77:31 *4548:A1 0.000111923
31 *92:8 *4532:B2 6.07611e-06
32 *102:14 *4548:A1 3.32677e-05
33 *114:12 *188:67 9.84794e-05
34 *115:10 *4548:A1 0
35 *120:8 *188:82 0.00108629
36 *120:8 *188:101 4.08664e-05
37 *122:10 *188:27 0
38 *131:10 *188:27 0.000110913
39 *166:16 *4532:B2 1.83564e-05
40 *167:56 *188:56 0.000489755
41 *167:56 *188:67 5.50049e-05
42 *173:154 *4548:A1 4.13945e-05
43 *177:67 *188:101 2.93619e-05
44 *180:10 *188:101 4.67998e-05
45 *182:16 *188:101 0.000206568
46 *182:20 *188:101 0.000380665
47 *186:53 *4560:B2 1.14154e-05
48 *186:53 *188:56 0.000196039
49 *186:53 *188:67 0.000107168
50 *186:61 *4548:A1 0.00014196
51 *186:78 *188:27 0.000684861
*RES
1 *4488:Y *188:10 34.745 
2 *188:10 *4489:A 23.3263 
3 *188:10 *188:27 49.43 
4 *188:27 *4577:A1 23 
5 *4488:Y *188:41 41.6664 
6 *188:41 *4548:A1 48.0879 
7 *188:41 *188:56 20.3857 
8 *188:56 *4560:B2 23.4971 
9 *188:56 *188:67 31.82 
10 *188:67 *4532:B2 40.9621 
11 *188:67 *188:82 29.6657 
12 *188:82 *4499:B1 23 
13 *188:82 *188:101 40.8482 
14 *188:101 *4519:A1 38 
*END

*D_NET *189 0.000657206
*CONN
*I *4564:A1_N I *D sky130_fd_sc_hd__a2bb2o_1
*I *4489:Y O *D sky130_fd_sc_hd__inv_1
*CAP
1 *4564:A1_N 8.11138e-05
2 *4489:Y 8.11138e-05
3 *4564:A1_N *215:8 1.03955e-05
4 *4564:A2_N *4564:A1_N 9.84794e-05
5 *4564:B1 *4564:A1_N 4.46649e-05
6 *186:78 *4564:A1_N 4.5e-05
7 *188:27 *4564:A1_N 0.000296438
*RES
1 *4489:Y *4564:A1_N 49.7389 
*END

*D_NET *190 0.00821517
*CONN
*I *4492:A2 I *D sky130_fd_sc_hd__o21a_1
*I *4538:B1 I *D sky130_fd_sc_hd__a2111oi_1
*I *4539:A1 I *D sky130_fd_sc_hd__a211o_1
*I *4491:B I *D sky130_fd_sc_hd__nor2_1
*I *4490:X O *D sky130_fd_sc_hd__mux2_8
*CAP
1 *4492:A2 0
2 *4538:B1 0
3 *4539:A1 0
4 *4491:B 0
5 *4490:X 0.000455504
6 *190:57 0.000105311
7 *190:46 0.000105272
8 *190:33 0.000624125
9 *190:21 0.00121998
10 *190:12 0.000881049
11 *190:8 0.000740742
12 *190:12 *230:56 0
13 *190:21 *191:10 5.50106e-05
14 *190:21 *193:16 0.000366995
15 *190:21 *228:20 1.56665e-05
16 *190:33 *4496:A1 3.3387e-05
17 *190:33 *4498:A2 4.95081e-05
18 *190:33 *4498:B1 7.85467e-05
19 *190:33 *195:46 0.000982109
20 *190:33 *195:59 0.000760822
21 *190:33 *228:20 5.70419e-05
22 *190:33 *234:20 0.000397075
23 *190:46 *194:74 1.01436e-05
24 *190:57 *4492:B1 1.01436e-05
25 *190:57 *193:39 3.89103e-05
26 *190:57 *195:59 3.47781e-05
27 *190:57 *228:20 0
28 *4491:A *190:21 5.50049e-05
29 *4540:C1 *190:33 3.84027e-05
30 *4540:C1 *190:46 5.50049e-05
31 *96:10 *190:46 6.99782e-05
32 *97:10 *190:46 0.000160182
33 *161:58 *190:33 9.67842e-05
34 *168:21 *190:21 0.000485452
35 *181:8 *190:12 0.000222104
36 *181:23 *190:12 1.01436e-05
*RES
1 *4490:X *190:8 45.7679 
2 *190:8 *190:12 20.4271 
3 *190:12 *4491:B 23 
4 *190:12 *190:21 13.5057 
5 *190:21 *190:33 21.9364 
6 *190:33 *4539:A1 23 
7 *190:33 *190:46 32.8793 
8 *190:46 *4538:B1 23 
9 *190:21 *190:57 32.2579 
10 *190:57 *4492:A2 23 
*END

*D_NET *191 0.00119751
*CONN
*I *4513:B1 I *D sky130_fd_sc_hd__o22a_1
*I *4491:Y O *D sky130_fd_sc_hd__nor2_1
*CAP
1 *4513:B1 0
2 *4491:Y 0.000304264
3 *191:10 0.000304264
4 *191:10 *193:16 6.71014e-05
5 *191:10 *193:61 0.000382574
6 *191:10 *230:56 0
7 *149:14 *191:10 3.0647e-05
8 *181:23 *191:10 5.36457e-05
9 *190:21 *191:10 5.50106e-05
*RES
1 *4491:Y *191:10 44.6493 
2 *191:10 *4513:B1 38 
*END

*D_NET *192 0.000857013
*CONN
*I *4498:A1 I *D sky130_fd_sc_hd__o21ai_1
*I *4492:X O *D sky130_fd_sc_hd__o21a_1
*CAP
1 *4498:A1 0
2 *4492:X 0.000344794
3 *192:10 0.000344794
4 *192:10 *193:29 0
5 *192:10 *198:12 2.96369e-05
6 *163:83 *192:10 0.000137788
*RES
1 *4492:X *192:10 42.9093 
2 *192:10 *4498:A1 38 
*END

*D_NET *193 0.00960429
*CONN
*I *4512:A2 I *D sky130_fd_sc_hd__o32a_1
*I *4496:A2 I *D sky130_fd_sc_hd__o211a_1
*I *4530:B1 I *D sky130_fd_sc_hd__a32o_1
*I *4497:A2 I *D sky130_fd_sc_hd__o21ai_1
*I *4493:X O *D sky130_fd_sc_hd__and2b_4
*CAP
1 *4512:A2 0
2 *4496:A2 4.99583e-05
3 *4530:B1 0
4 *4497:A2 0.00013775
5 *4493:X 0
6 *193:61 0.00059959
7 *193:39 0.0012332
8 *193:29 0.00136929
9 *193:16 0.0011301
10 *193:4 0.00150581
11 *4496:A2 *195:59 2.46922e-05
12 *4497:A2 *197:8 4.334e-05
13 *4497:A2 *228:39 0.000168558
14 *193:16 *4493:A_N 3.22879e-05
15 *193:16 *4496:A1 2.64616e-05
16 *193:16 *222:51 0
17 *193:16 *228:20 0.000266293
18 *193:29 *197:8 2.70366e-05
19 *193:29 *228:39 3.70187e-05
20 *193:39 *4492:B1 0.000202908
21 *193:39 *195:59 1.6873e-05
22 *193:39 *198:12 0
23 *193:39 *219:59 0.000105787
24 *193:61 *219:16 0
25 *193:61 *219:92 0.000164291
26 *193:61 *227:10 1.14452e-05
27 *193:61 *227:16 0.000160191
28 *193:61 *232:12 7.91596e-05
29 *193:61 *232:37 0.000112487
30 *4491:A *193:16 5.50049e-05
31 *4518:A1 *193:39 8.48502e-06
32 *4518:B1 *193:39 9.41704e-05
33 *4530:B2 *193:39 9.67842e-05
34 *73:10 *193:61 6.33614e-05
35 *149:14 *193:61 4.99753e-06
36 *158:52 *193:39 0.000145287
37 *163:83 *4497:A2 0
38 *163:83 *193:29 0
39 *167:75 *193:61 0
40 *168:8 *193:29 0
41 *168:21 *193:16 5.29672e-05
42 *177:71 *193:39 0.000398655
43 *177:77 *193:39 0.000235024
44 *179:72 *193:39 0
45 *182:37 *193:39 8.94394e-05
46 *190:21 *193:16 0.000366995
47 *190:57 *193:39 3.89103e-05
48 *191:10 *193:16 6.71014e-05
49 *191:10 *193:61 0.000382574
50 *192:10 *193:29 0
*RES
1 *4493:X *193:4 23 
2 *193:4 *193:16 32.8557 
3 *193:16 *4497:A2 41.1279 
4 *193:16 *193:29 1.3775 
5 *193:29 *193:39 39.8986 
6 *193:39 *4530:B1 23 
7 *193:29 *4496:A2 38.9425 
8 *193:4 *193:61 43.5264 
9 *193:61 *4512:A2 23 
*END

*D_NET *194 0.0181969
*CONN
*I *4538:C1 I *D sky130_fd_sc_hd__a2111oi_1
*I *4537:B1 I *D sky130_fd_sc_hd__a211o_1
*I *4533:B I *D sky130_fd_sc_hd__nor2_2
*I *4527:A2 I *D sky130_fd_sc_hd__o21a_1
*I *4565:C I *D sky130_fd_sc_hd__or4b_1
*I *4573:B I *D sky130_fd_sc_hd__nand2_1
*I *4494:X O *D sky130_fd_sc_hd__and2b_4
*CAP
1 *4538:C1 4.21417e-05
2 *4537:B1 0.000135339
3 *4533:B 0
4 *4527:A2 0
5 *4565:C 0
6 *4573:B 0
7 *4494:X 0.000323784
8 *194:74 0.000338692
9 *194:54 0.000442882
10 *194:46 0.000957217
11 *194:38 0.00204272
12 *194:36 0.00189512
13 *194:23 0.000601399
14 *194:10 0.00146274
15 *194:6 0.00171307
16 *4537:B1 *223:53 5.67058e-05
17 *4537:B1 *237:29 9.16504e-05
18 *194:6 *229:29 2.93335e-05
19 *194:10 *230:91 0.00139238
20 *194:36 *218:95 6.03737e-05
21 *194:36 *229:92 0.000192087
22 *194:38 *229:92 1.94693e-05
23 *194:38 *229:101 7.43025e-06
24 *194:38 *234:39 0.000580298
25 *194:38 *234:49 1.94812e-05
26 *194:54 *4459:A 0
27 *194:54 *220:87 1.01436e-05
28 *194:74 *237:16 0
29 *194:74 *237:29 1.70989e-05
30 *4533:A *194:46 0.000232142
31 *4538:A2 *194:38 1.94812e-05
32 *4540:A2 *194:6 0.000193749
33 *4540:A2 *194:36 0.000471089
34 *4541:A *194:36 5.50106e-05
35 *4541:B *194:36 5.67058e-05
36 *4550:A2 *194:54 5.3304e-05
37 *4553:B *194:46 0.000279936
38 *4565:D_N *194:23 0.000360216
39 *66:23 *194:23 6.88819e-05
40 *66:38 *194:23 0.000140259
41 *83:16 *194:46 0
42 *83:22 *194:46 0.000667155
43 *83:22 *194:54 0.00028316
44 *89:10 *194:54 8.47428e-05
45 *94:10 *194:54 4.96264e-05
46 *94:23 *194:54 0.000238728
47 *94:42 *194:54 5.97612e-05
48 *96:10 *4537:B1 2.45964e-05
49 *96:10 *194:46 0.00015795
50 *96:10 *194:74 6.69655e-05
51 *97:10 *4538:C1 5.37348e-06
52 *100:10 *194:36 0.000140259
53 *110:16 *194:54 0.000141879
54 *148:8 *4537:B1 5.50106e-05
55 *148:18 *4537:B1 0.000138718
56 *148:18 *4538:C1 6.17437e-06
57 *148:18 *194:74 1.56662e-06
58 *149:20 *194:46 0
59 *155:20 *194:46 4.08664e-05
60 *155:20 *194:54 9.58714e-05
61 *157:36 *194:46 0.000272027
62 *157:47 *194:54 3.47781e-05
63 *157:68 *194:46 5.3304e-05
64 *157:68 *194:54 4.08664e-05
65 *161:58 *194:46 0
66 *161:86 *194:10 1.14452e-05
67 *161:86 *194:23 0.000361655
68 *161:104 *194:10 0.000195559
69 *163:14 *194:6 5.11621e-05
70 *163:69 *194:54 9.01352e-05
71 *167:56 *194:23 0.000362233
72 *173:133 *194:10 9.28945e-05
73 *190:46 *194:74 1.01436e-05
*RES
1 *4494:X *194:6 28.8621 
2 *194:6 *194:10 37.33 
3 *194:10 *4573:B 38 
4 *194:10 *194:23 30.5357 
5 *194:23 *4565:C 23 
6 *194:6 *194:36 43.2364 
7 *194:36 *194:38 20.155 
8 *194:38 *194:46 44.1479 
9 *194:46 *194:54 42.5114 
10 *194:54 *4527:A2 23 
11 *194:46 *4533:B 23 
12 *194:38 *194:74 18.0657 
13 *194:74 *4537:B1 41.9979 
14 *194:74 *4538:C1 38.6214 
*END

*D_NET *195 0.0209699
*CONN
*I *4536:B I *D sky130_fd_sc_hd__and3_4
*I *4530:A3 I *D sky130_fd_sc_hd__a32o_1
*I *4496:B1 I *D sky130_fd_sc_hd__o211a_1
*I *4540:B2 I *D sky130_fd_sc_hd__o221a_1
*I *4495:Y O *D sky130_fd_sc_hd__nand2b_4
*CAP
1 *4536:B 0.000160655
2 *4530:A3 1.64097e-05
3 *4496:B1 0
4 *4540:B2 0
5 *4495:Y 0.000368481
6 *195:59 0.000621927
7 *195:46 0.00117039
8 *195:32 0.00179232
9 *195:30 0.000843199
10 *195:24 0.001812
11 *195:16 0.00111305
12 *195:14 0.0014904
13 *195:10 0.00185889
14 *4536:B *217:8 0
15 *195:10 *4450:A_N 2.46345e-05
16 *195:10 *4450:B 1.62015e-05
17 *195:10 *4482:A 5.3304e-05
18 *195:10 *4495:B 0.000274078
19 *195:10 *232:50 5.01247e-05
20 *195:10 *232:61 1.56762e-05
21 *195:10 *236:27 0.00026599
22 *195:14 *211:8 0.000706221
23 *195:24 *234:16 0.000162803
24 *195:30 *4673:A 5.3304e-05
25 *195:30 *227:30 0.000558185
26 *195:30 *234:16 0
27 *195:46 *4522:C 0.000227208
28 *195:46 *4540:A1 6.17437e-06
29 *195:59 *228:20 0
30 *4496:A2 *195:59 2.46922e-05
31 *4507:B *195:14 1.32289e-05
32 *4536:A *4536:B 0
33 *4540:C1 *195:46 0.00113777
34 *64:24 *195:14 0.000981052
35 *64:28 *4536:B 0
36 *82:10 *195:30 0
37 *87:12 *195:30 0.000115299
38 *98:10 *195:46 0.000471253
39 *143:65 *195:30 0
40 *150:10 *195:10 0
41 *157:72 *4536:B 4.16338e-05
42 *157:72 *195:24 0.000371746
43 *158:43 *195:24 7.96152e-06
44 *158:43 *195:30 1.21972e-05
45 *158:52 *4530:A3 2.02517e-05
46 *158:52 *195:24 0.000103543
47 *163:75 *195:24 8.4047e-05
48 *167:34 *195:46 0.000678668
49 *168:8 *195:59 6.07611e-06
50 *170:46 *195:10 3.17516e-05
51 *176:14 *195:24 0.000241684
52 *176:27 *4536:B 3.56214e-05
53 *176:27 *195:14 4.79612e-05
54 *176:27 *195:24 0.000238142
55 *179:57 *195:30 0.000849107
56 *190:33 *195:46 0.000982109
57 *190:33 *195:59 0.000760822
58 *190:57 *195:59 3.47781e-05
59 *193:39 *195:59 1.6873e-05
*RES
1 *4495:Y *195:10 46.9279 
2 *195:10 *195:14 38.49 
3 *195:14 *195:16 15 
4 *195:16 *195:24 36.9571 
5 *195:24 *195:30 35.2586 
6 *195:30 *195:32 15 
7 *195:32 *195:46 32.3143 
8 *195:46 *4540:B2 23 
9 *195:32 *195:59 40.0464 
10 *195:59 *4496:B1 23 
11 *195:24 *4530:A3 23.4971 
12 *195:16 *4536:B 41.3143 
*END

*D_NET *196 0.000235473
*CONN
*I *4498:A2 I *D sky130_fd_sc_hd__o21ai_1
*I *4496:X O *D sky130_fd_sc_hd__o211a_1
*CAP
1 *4498:A2 6.46295e-05
2 *4496:X 6.46295e-05
3 *4498:A2 *4498:B1 5.67058e-05
4 *190:33 *4498:A2 4.95081e-05
*RES
1 *4496:X *4498:A2 47.5743 
*END

*D_NET *197 0.000439209
*CONN
*I *4498:B1 I *D sky130_fd_sc_hd__o21ai_1
*I *4497:Y O *D sky130_fd_sc_hd__o21ai_1
*CAP
1 *4498:B1 3.40257e-05
2 *4497:Y 8.27641e-05
3 *197:8 0.00011679
4 *4497:A2 *197:8 4.334e-05
5 *4498:A2 *4498:B1 5.67058e-05
6 *163:83 *197:8 0
7 *190:33 *4498:B1 7.85467e-05
8 *193:29 *197:8 2.70366e-05
*RES
1 *4497:Y *197:8 39.9057 
2 *197:8 *4498:B1 39.0979 
*END

*D_NET *198 0.00537761
*CONN
*I *4499:B2 I *D sky130_fd_sc_hd__a2bb2o_1
*I *4498:Y O *D sky130_fd_sc_hd__o21ai_1
*CAP
1 *4499:B2 0
2 *4498:Y 0
3 *198:12 0.00145539
4 *198:6 0.00145539
5 *198:12 *240:66 0.000139647
6 *4504:A *198:12 5.50106e-05
7 *150:26 *198:12 0.000293785
8 *158:62 *198:12 0.000606543
9 *163:83 *198:12 0
10 *173:61 *198:12 8.68903e-05
11 *176:14 *198:12 0.000245988
12 *176:27 *198:12 0.000151501
13 *177:77 *198:12 2.36844e-05
14 *182:16 *198:12 2.24973e-05
15 *182:20 *198:12 0.000218725
16 *188:101 *198:12 0.000592915
17 *192:10 *198:12 2.96369e-05
18 *193:39 *198:12 0
*RES
1 *4498:Y *198:6 38 
2 *198:6 *198:12 49.5721 
3 *198:12 *4499:B2 23 
*END

*D_NET *199 0.00679968
*CONN
*I *4582:A2 I *D sky130_fd_sc_hd__a21oi_1
*I *4581:C I *D sky130_fd_sc_hd__and3_4
*I *4630:A I *D sky130_fd_sc_hd__dlygate4sd3_1
*I *4452:A0 I *D sky130_fd_sc_hd__mux2_1
*I *4602:Q O *D sky130_fd_sc_hd__dfrtp_4
*CAP
1 *4582:A2 0
2 *4581:C 0
3 *4630:A 0
4 *4452:A0 0.000304046
5 *4602:Q 2.95294e-05
6 *199:52 0.000441326
7 *199:38 0.000441326
8 *199:36 0.000833726
9 *199:25 0.00119057
10 *199:8 0.000690414
11 *4452:A0 *4452:S 0.000141954
12 *4452:A0 *210:14 3.53115e-05
13 *4452:A0 *251:12 0
14 *199:8 *4442:A 1.32314e-05
15 *199:8 *245:33 4.17736e-05
16 *199:25 *245:8 0.000113153
17 *199:25 *251:12 0
18 *199:36 *4443:A1 0.000141869
19 *199:36 *226:8 0.0002246
20 *199:36 *226:12 0
21 *199:36 *235:8 1.21972e-05
22 *199:36 *249:10 0.000321966
23 *199:36 *249:14 0.000166504
24 *199:36 *251:8 0.000661051
25 *199:52 *4443:A1 1.4471e-05
26 *199:52 *4582:A1 4.66047e-05
27 *199:52 *4582:B1 5.50049e-05
28 *199:52 *4596:A 9.84794e-05
29 *199:52 *225:56 0.000186697
30 *199:52 *245:33 0.000182826
31 *4583:A *199:52 8.40718e-05
32 *8:15 *199:36 0
33 *9:15 *199:36 0
34 *136:8 *199:52 0.000326983
*RES
1 *4602:Q *199:8 38.6214 
2 *199:8 *4452:A0 43.9657 
3 *199:8 *199:25 21.3179 
4 *199:25 *4630:A 23 
5 *199:25 *199:36 36.2114 
6 *199:36 *199:38 15 
7 *199:38 *199:52 41.1236 
8 *199:52 *4581:C 23 
9 *199:38 *4582:A2 23 
*END

*D_NET *200 0.0131554
*CONN
*I *4632:A I *D sky130_fd_sc_hd__dlygate4sd3_1
*I *4582:A1 I *D sky130_fd_sc_hd__a21oi_1
*I *4581:A I *D sky130_fd_sc_hd__and3_4
*I *4445:B I *D sky130_fd_sc_hd__nand2b_4
*I *4446:A0 I *D sky130_fd_sc_hd__mux2_1
*I *4603:Q O *D sky130_fd_sc_hd__dfrtp_4
*CAP
1 *4632:A 0
2 *4582:A1 0.000241732
3 *4581:A 0
4 *4445:B 0
5 *4446:A0 5.81274e-05
6 *4603:Q 0.000299813
7 *200:66 0.000110804
8 *200:37 0.000151039
9 *200:24 0.00197073
10 *200:18 0.00185743
11 *200:16 0.00136082
12 *200:8 0.00143384
13 *4446:A0 *221:12 6.17437e-06
14 *4446:A0 *221:20 2.64616e-05
15 *4582:A1 *4443:A1 0
16 *4582:A1 *4582:B1 0.00010018
17 *4582:A1 *221:10 0.00021356
18 *4582:A1 *225:56 0.000233016
19 *4582:A1 *245:33 1.03836e-05
20 *200:16 *4580:A 0.000283793
21 *200:16 *4580:B 0.000487147
22 *200:16 *201:8 1.05235e-05
23 *200:16 *210:14 0.000305425
24 *200:18 *221:10 0.000330144
25 *200:18 *225:56 0.000249909
26 *200:18 *225:62 7.79942e-05
27 *200:24 *221:10 0.000724977
28 *200:24 *221:12 0.000850858
29 *200:24 *225:62 0.00133734
30 *200:37 *4444:B 0
31 *200:37 *241:17 0
32 *200:37 *241:37 0
33 *200:66 *225:50 0
34 *4603:D *200:16 7.42621e-05
35 *64:16 *200:37 0.000302348
36 *199:52 *4582:A1 4.66047e-05
*RES
1 *4603:Q *200:8 27.3293 
2 *200:8 *200:16 32.9386 
3 *200:16 *200:18 4.37071 
4 *200:18 *200:24 48.6193 
5 *200:24 *4446:A0 23.6214 
6 *200:24 *200:37 34.0186 
7 *200:37 *4445:B 23 
8 *200:18 *4581:A 38 
9 *200:16 *4582:A1 43.9657 
10 *200:8 *200:66 31.9057 
11 *200:66 *4632:A 23 
*END

*D_NET *201 0.00330935
*CONN
*I *4631:A I *D sky130_fd_sc_hd__dlygate4sd3_1
*I *4581:B I *D sky130_fd_sc_hd__and3_4
*I *4447:A0 I *D sky130_fd_sc_hd__mux2_1
*I *4604:Q O *D sky130_fd_sc_hd__dfrtp_1
*CAP
1 *4631:A 0.00014641
2 *4581:B 0
3 *4447:A0 0
4 *4604:Q 5.80982e-05
5 *201:16 0.000635564
6 *201:10 0.000699857
7 *201:8 0.000268801
8 *4631:A *221:10 0.000261248
9 *4631:A *225:56 9.67842e-05
10 *4631:A *245:33 0.000216656
11 *201:10 *221:10 0.000127272
12 *201:16 *4447:S 5.70419e-05
13 *201:16 *221:10 0.000407227
14 *3:13 *4631:A 5.30518e-05
15 *3:13 *201:10 6.6869e-05
16 *3:13 *201:16 0.00020395
17 *200:16 *201:8 1.05235e-05
*RES
1 *4604:Q *201:8 38.6214 
2 *201:8 *201:10 1.90571 
3 *201:10 *201:16 27.7186 
4 *201:16 *4447:A0 23 
5 *201:10 *4581:B 38 
6 *201:8 *4631:A 42.7643 
*END

*D_NET *202 0.00429141
*CONN
*I *4585:A I *D sky130_fd_sc_hd__nor2_1
*I *4443:A0 I *D sky130_fd_sc_hd__mux2_8
*I *4584:A I *D sky130_fd_sc_hd__and2_4
*I *4605:Q O *D sky130_fd_sc_hd__dfrtp_4
*CAP
1 *4585:A 0
2 *4443:A0 0.000727576
3 *4584:A 0
4 *4605:Q 0.00102604
5 *202:20 0.000263187
6 *202:12 0.0020168
7 *4443:A0 *4443:S 4.04598e-06
8 *4584:B *202:20 9.53499e-05
9 *135:19 *202:20 6.07611e-06
10 *137:8 *202:20 2.76611e-06
11 *138:10 *4443:A0 5.50049e-05
12 *138:10 *202:12 9.45591e-05
13 *138:10 *202:20 0
*RES
1 *4605:Q *202:12 37.9764 
2 *202:12 *202:20 34.5364 
3 *202:20 *4584:A 23 
4 *202:12 *4443:A0 32.86 
5 *202:12 *4585:A 23 
*END

*D_NET *203 0.00832795
*CONN
*I *4633:A I *D sky130_fd_sc_hd__dlygate4sd3_1
*I *4588:A I *D sky130_fd_sc_hd__and3_4
*I *4589:A1 I *D sky130_fd_sc_hd__a21oi_1
*I *4460:B I *D sky130_fd_sc_hd__or2_4
*I *4462:A0 I *D sky130_fd_sc_hd__mux2_1
*I *4606:Q O *D sky130_fd_sc_hd__dfrtp_4
*CAP
1 *4633:A 0
2 *4588:A 0.000489734
3 *4589:A1 0
4 *4460:B 0
5 *4462:A0 0.000346814
6 *4606:Q 0.000157079
7 *203:46 0.00138974
8 *203:33 7.26468e-05
9 *203:16 0.000760912
10 *203:14 0.00206548
11 *203:12 0.000991029
12 *203:8 0.000324082
13 *4462:A0 *4462:S 5.41288e-05
14 *4462:A0 *241:76 0.000186808
15 *4462:A0 *243:12 0.000130423
16 *4462:A0 *243:20 5.67058e-05
17 *4588:A *204:16 0.000141954
18 *4588:A *250:6 0.000583818
19 *203:14 *248:10 0.000134065
20 *203:33 *207:25 0.000129402
21 *203:33 *249:14 0.000253061
22 *203:46 *207:25 0
23 *4589:A2 *4588:A 3.70363e-05
24 *4589:A2 *203:46 2.30292e-05
*RES
1 *4606:Q *203:8 40.9621 
2 *203:8 *203:12 18.0036 
3 *203:12 *203:14 15.3907 
4 *203:14 *203:16 5.86214 
5 *203:16 *4462:A0 30.4571 
6 *203:16 *203:33 33.3143 
7 *203:33 *4460:B 23 
8 *203:14 *203:46 45.1421 
9 *203:46 *4589:A1 23 
10 *203:46 *4588:A 32.2386 
11 *203:12 *4633:A 23 
*END

*D_NET *204 0.0040354
*CONN
*I *4634:A I *D sky130_fd_sc_hd__dlygate4sd3_1
*I *4588:B I *D sky130_fd_sc_hd__and3_4
*I *4473:A0 I *D sky130_fd_sc_hd__mux2_8
*I *4607:Q O *D sky130_fd_sc_hd__dfrtp_4
*CAP
1 *4634:A 0
2 *4588:B 0
3 *4473:A0 0
4 *4607:Q 0.000444687
5 *204:24 0.00108772
6 *204:16 0.00136355
7 *204:12 0.000275829
8 *204:10 0.000444687
9 *204:10 *225:22 0.000220066
10 *204:10 *225:24 3.35885e-06
11 *204:16 *250:6 4.95081e-05
12 *204:24 *4473:S 4.04598e-06
13 *4588:A *204:16 0.000141954
14 *5:13 *204:24 0
*RES
1 *4607:Q *204:10 47.7357 
2 *204:10 *204:12 15 
3 *204:12 *204:16 5.40643 
4 *204:16 *204:24 43.9614 
5 *204:24 *4473:A0 23 
6 *204:16 *4588:B 23 
7 *204:12 *4634:A 23 
*END

*D_NET *205 0.00224562
*CONN
*I *4485:B I *D sky130_fd_sc_hd__or2_4
*I *4591:A I *D sky130_fd_sc_hd__nand2_1
*I *4592:A I *D sky130_fd_sc_hd__or2_1
*I *4608:Q O *D sky130_fd_sc_hd__dfrtp_1
*CAP
1 *4485:B 0.00058748
2 *4591:A 0.0001039
3 *4592:A 0
4 *4608:Q 0.000157196
5 *205:10 0.0001039
6 *205:8 0.000744676
7 *4591:A *242:20 0.000228903
8 *4591:B *4591:A 0.000104087
9 *60:10 *205:8 0
10 *139:28 *4485:B 0.000137153
11 *139:28 *205:8 6.07611e-06
12 *141:10 *4591:A 5.37348e-06
13 *141:10 *205:8 0
14 *141:16 *205:8 0
15 *142:8 *205:8 6.68793e-05
*RES
1 *4608:Q *205:8 40.61 
2 *205:8 *205:10 15 
3 *205:10 *4592:A 23 
4 *205:10 *4591:A 26.8736 
5 *205:8 *4485:B 48.9579 
*END

*D_NET *206 0.00118606
*CONN
*I *4500:B I *D sky130_fd_sc_hd__or2_4
*I *4629:A I *D sky130_fd_sc_hd__dlygate4sd3_1
*I *4609:Q O *D sky130_fd_sc_hd__dfrtp_1
*CAP
1 *4500:B 0.000268417
2 *4629:A 0
3 *4609:Q 0.000309923
4 *206:12 0.000268417
5 *206:10 0.000309923
6 *4500:B *244:10 2.93845e-05
7 *206:10 *244:10 0
*RES
1 *4609:Q *206:10 42.4329 
2 *206:10 *206:12 15 
3 *206:12 *4629:A 23 
4 *206:12 *4500:B 27.9093 
*END

*D_NET *207 0.00308631
*CONN
*I *4611:A I *D sky130_fd_sc_hd__clkbuf_16
*I *4612:A I *D sky130_fd_sc_hd__clkbuf_16
*I *4610:X O *D sky130_fd_sc_hd__clkbuf_16
*CAP
1 *4611:A 0
2 *4612:A 0
3 *4610:X 5.12892e-05
4 *207:25 0.000477948
5 *207:12 0.000439909
6 *207:6 0.000969146
7 *207:12 *4447:S 0
8 *207:12 *226:12 3.81391e-05
9 *207:12 *241:97 0
10 *207:12 *243:12 0
11 *207:12 *249:14 0.000885437
12 *207:25 *249:14 9.50414e-05
13 *143:10 *207:12 0
14 *203:33 *207:25 0.000129402
15 *203:46 *207:25 0
*RES
1 *4610:X *207:6 23.6214 
2 *207:6 *207:12 41.7657 
3 *207:12 *4612:A 23 
4 *207:6 *207:25 39.2386 
5 *207:25 *4611:A 23 
*END

*D_NET *208 0.00675508
*CONN
*I *4606:CLK I *D sky130_fd_sc_hd__dfrtp_4
*I *4607:CLK I *D sky130_fd_sc_hd__dfrtp_4
*I *4608:CLK I *D sky130_fd_sc_hd__dfrtp_1
*I *4609:CLK I *D sky130_fd_sc_hd__dfrtp_1
*I *4611:X O *D sky130_fd_sc_hd__clkbuf_16
*CAP
1 *4606:CLK 0.00013372
2 *4607:CLK 0
3 *4608:CLK 0
4 *4609:CLK 0.00143076
5 *4611:X 0.000147199
6 *208:16 0.00192934
7 *208:10 0.000998797
8 *208:8 0.000781139
9 *4606:CLK *248:10 5.3656e-05
10 *4609:CLK *242:39 1.69511e-05
11 *208:8 *4587:A 9.58714e-05
12 *208:10 *248:10 9.48381e-06
13 *4593:B *4609:CLK 4.63945e-05
14 *4609:RESET_B *4609:CLK 3.18571e-05
15 *5:13 *208:10 0
16 *5:13 *208:16 0
17 *50:10 *208:10 0
18 *51:10 *208:10 5.3365e-05
19 *52:8 *4609:CLK 0.00014968
20 *137:8 *4606:CLK 0.00015954
21 *137:8 *208:10 6.16439e-05
22 *137:12 *208:10 0.000404038
23 *139:8 *208:10 0.000166522
24 *140:10 *208:10 8.51225e-05
*RES
1 *4611:X *208:8 40.5271 
2 *208:8 *208:10 12.1179 
3 *208:10 *208:16 24.2593 
4 *208:16 *4609:CLK 46.9043 
5 *208:16 *4608:CLK 23 
6 *208:10 *4607:CLK 38 
7 *208:8 *4606:CLK 41.3557 
*END

*D_NET *209 0.00580172
*CONN
*I *4603:CLK I *D sky130_fd_sc_hd__dfrtp_4
*I *4605:CLK I *D sky130_fd_sc_hd__dfrtp_4
*I *4613:A I *D sky130_fd_sc_hd__clkbuf_4
*I *4602:CLK I *D sky130_fd_sc_hd__dfrtp_4
*I *4604:CLK I *D sky130_fd_sc_hd__dfrtp_1
*I *4612:X O *D sky130_fd_sc_hd__clkbuf_16
*CAP
1 *4603:CLK 0.000283527
2 *4605:CLK 0.000300671
3 *4613:A 0
4 *4602:CLK 0.000307096
5 *4604:CLK 0
6 *4612:X 0
7 *209:43 0.000893203
8 *209:16 0.000649703
9 *209:10 0.00110382
10 *209:4 0.00107021
11 *4602:CLK *243:12 0.000191148
12 *4602:CLK *245:33 0.000533224
13 *209:16 *243:12 0.000469121
14 *5:13 *4603:CLK 0
15 *5:13 *4605:CLK 0
16 *135:19 *4603:CLK 0
17 *135:19 *4605:CLK 0
*RES
1 *4612:X *209:4 23 
2 *209:4 *209:10 12.2214 
3 *209:10 *209:16 23.1821 
4 *209:16 *4604:CLK 38 
5 *209:16 *4602:CLK 46.4721 
6 *209:10 *4613:A 23 
7 *209:4 *209:43 20.3857 
8 *209:43 *4605:CLK 43.7793 
9 *209:43 *4603:CLK 43.4271 
*END

*D_NET *210 0.00583305
*CONN
*I *4452:A1 I *D sky130_fd_sc_hd__mux2_1
*I *4635:X O *D sky130_fd_sc_hd__buf_1
*CAP
1 *4452:A1 0
2 *4635:X 0.000197871
3 *210:14 0.00236766
4 *210:8 0.00256553
5 *210:14 *4452:S 0.000267991
6 *4452:A0 *210:14 3.53115e-05
7 *3:13 *210:8 9.32613e-05
8 *200:16 *210:14 0.000305425
*RES
1 *4635:X *210:8 42.0186 
2 *210:8 *210:14 46.0093 
3 *210:14 *4452:A1 23 
*END

*D_NET *211 0.00389849
*CONN
*I *4647:A I *D sky130_fd_sc_hd__clkbuf_1
*I *4520:X O *D sky130_fd_sc_hd__a22o_1
*CAP
1 *4647:A 0
2 *4520:X 0.000101094
3 *211:16 0.000934514
4 *211:8 0.00103561
5 *211:16 *213:18 0
6 *211:16 *215:16 0
7 *211:16 *253:10 0
8 *211:16 *253:16 0.000416535
9 *64:24 *211:8 0.00070452
10 *195:14 *211:8 0.000706221
*RES
1 *4520:X *211:8 45.7679 
2 *211:8 *211:16 32.3379 
3 *211:16 *4647:A 23 
*END

*D_NET *212 0.00639506
*CONN
*I *4648:A I *D sky130_fd_sc_hd__clkbuf_1
*I *4535:X O *D sky130_fd_sc_hd__a32o_1
*CAP
1 *4648:A 0.00058904
2 *4535:X 0
3 *212:8 0.00199688
4 *212:4 0.00140784
5 *4648:A *4450:B 0
6 *4648:A *213:18 0
7 *150:10 *4648:A 0
8 *169:10 *4648:A 0.000418557
9 *169:16 *4648:A 3.47781e-05
10 *169:44 *212:8 0.00194797
*RES
1 *4535:X *212:4 23 
2 *212:4 *212:8 47.0657 
3 *212:8 *4648:A 49.4136 
*END

*D_NET *213 0.00802157
*CONN
*I *4649:A I *D sky130_fd_sc_hd__clkbuf_1
*I *4549:X O *D sky130_fd_sc_hd__a21o_1
*CAP
1 *4649:A 0
2 *4549:X 1.66535e-05
3 *213:18 0.00373464
4 *213:10 0.0037513
5 *213:18 *217:12 0.000518972
6 *213:18 *253:10 0
7 *4648:A *213:18 0
8 *64:57 *213:10 0
9 *211:16 *213:18 0
*RES
1 *4549:X *213:10 46.3211 
2 *213:10 *213:18 40.9304 
3 *213:18 *4649:A 23 
*END

*D_NET *214 0.00645809
*CONN
*I *4650:A I *D sky130_fd_sc_hd__clkbuf_1
*I *4561:X O *D sky130_fd_sc_hd__a32o_1
*CAP
1 *4650:A 0
2 *4561:X 0.000683592
3 *214:16 0.00141349
4 *214:10 0.00209709
5 *214:10 *240:51 0
6 *214:16 *216:12 0.00148707
7 *214:16 *253:16 5.47927e-05
8 *64:41 *214:10 0.000708823
9 *64:45 *214:10 1.32314e-05
*RES
1 *4561:X *214:10 49.7864 
2 *214:10 *214:16 37.91 
3 *214:16 *4650:A 23 
*END

*D_NET *215 0.0146655
*CONN
*I *4651:A I *D sky130_fd_sc_hd__clkbuf_1
*I *4566:X O *D sky130_fd_sc_hd__a21bo_1
*CAP
1 *4651:A 0
2 *4566:X 0.000925597
3 *215:16 0.000827707
4 *215:10 0.0034452
5 *215:8 0.00354309
6 *215:16 *253:10 0.000117249
7 *4563:A1 *215:16 0
8 *4564:A1_N *215:8 1.03955e-05
9 *4564:B1 *215:8 0.00136316
10 *4564:B1 *215:10 0.000159734
11 *4566:A2 *215:8 0.000224587
12 *62:8 *215:16 0
13 *70:8 *215:16 0
14 *120:8 *215:8 0
15 *120:8 *215:10 0.00353477
16 *121:6 *215:8 0.000100069
17 *186:78 *215:8 0.000405895
18 *188:27 *215:8 8.06804e-06
19 *211:16 *215:16 0
*RES
1 *4566:X *215:8 45.5579 
2 *215:8 *215:10 42.5471 
3 *215:10 *215:16 44.935 
4 *215:16 *4651:A 23 
*END

*D_NET *216 0.0118419
*CONN
*I *4652:A I *D sky130_fd_sc_hd__clkbuf_1
*I *4579:X O *D sky130_fd_sc_hd__mux2_4
*CAP
1 *4652:A 2.34823e-05
2 *4579:X 0
3 *216:12 0.00391787
4 *216:10 0.00515392
5 *216:6 0.00125954
6 *214:16 *216:12 0.00148707
*RES
1 *4579:X *216:6 38 
2 *216:6 *216:10 39.4429 
3 *216:10 *216:12 73.9914 
4 *216:12 *4652:A 23.4971 
*END

*D_NET *217 0.00643403
*CONN
*I *4653:A I *D sky130_fd_sc_hd__clkbuf_1
*I *4549:B1 I *D sky130_fd_sc_hd__a21o_1
*I *4536:X O *D sky130_fd_sc_hd__and3_4
*CAP
1 *4653:A 0
2 *4549:B1 0
3 *4536:X 0.000734706
4 *217:28 0.000637053
5 *217:12 0.00182503
6 *217:8 0.00192269
7 *217:8 *240:51 0
8 *4506:B *217:28 9.74132e-05
9 *4536:A *217:8 0.000141888
10 *4536:B *217:8 0
11 *64:41 *217:28 0.000443673
12 *69:27 *217:28 1.41129e-05
13 *182:8 *217:28 9.84851e-05
14 *213:18 *217:12 0.000518972
*RES
1 *4536:X *217:8 40.2579 
2 *217:8 *217:12 47.5421 
3 *217:12 *4549:B1 23 
4 *4536:X *217:28 49.0614 
5 *217:28 *4653:A 38 
*END

*D_NET *218 0.00906543
*CONN
*I *4505:B I *D sky130_fd_sc_hd__nand2_1
*I *4463:A I *D sky130_fd_sc_hd__nand2_4
*I *4567:A2 I *D sky130_fd_sc_hd__a21oi_1
*I *4574:B2 I *D sky130_fd_sc_hd__a22o_1
*I *4464:A1 I *D sky130_fd_sc_hd__a21oi_2
*I *4546:C I *D sky130_fd_sc_hd__and4_4
*I *4494:B I *D sky130_fd_sc_hd__and2b_4
*I *4643:X O *D sky130_fd_sc_hd__buf_2
*CAP
1 *4505:B 0
2 *4463:A 2.30556e-05
3 *4567:A2 0
4 *4574:B2 0
5 *4464:A1 0
6 *4546:C 8.75767e-05
7 *4494:B 4.26672e-05
8 *4643:X 0.000823442
9 *218:95 0.000276789
10 *218:67 0.000679601
11 *218:52 0.00078374
12 *218:41 0.000373662
13 *218:33 0.000751189
14 *218:16 0.00100915
15 *218:10 0.00096695
16 *4546:C *4458:A 6.82514e-05
17 *4546:C *4546:A 5.3304e-05
18 *4546:C *229:42 0.000221715
19 *218:10 *4616:A 0.000228909
20 *218:10 *229:6 3.22763e-05
21 *218:10 *229:77 2.80757e-05
22 *218:10 *230:80 0.000727076
23 *218:16 *4463:B 1.59071e-05
24 *218:16 *229:6 3.18142e-05
25 *218:16 *229:21 0
26 *218:16 *229:29 3.70094e-05
27 *218:16 *234:63 0
28 *218:33 *4567:A1 2.30292e-05
29 *218:33 *4567:B1 5.12254e-05
30 *218:33 *229:29 0.000411299
31 *218:33 *234:63 0
32 *218:41 *4567:A1 5.45887e-05
33 *218:41 *238:61 2.44137e-05
34 *218:52 *229:56 9.63918e-05
35 *218:52 *238:61 0.000218952
36 *218:67 *4545:B 3.08847e-05
37 *218:67 *234:128 0.000186606
38 *218:67 *238:55 0
39 *218:95 *229:77 2.24793e-05
40 *218:95 *229:92 0
41 *4574:B1 *218:67 8.57116e-05
42 *104:14 *218:67 0.000196347
43 *123:8 *218:41 2.04774e-05
44 *123:8 *218:52 1.47563e-05
45 *123:8 *218:67 6.07611e-06
46 *154:14 *218:95 0.000146365
47 *154:27 *218:95 9.63918e-05
48 *163:10 *218:16 5.68958e-05
49 *177:10 *218:16 0
50 *194:36 *218:95 6.03737e-05
*RES
1 *4643:X *218:10 35.6979 
2 *218:10 *218:16 22.1464 
3 *218:16 *4494:B 38.6214 
4 *218:16 *218:33 26.7864 
5 *218:33 *218:41 18.3764 
6 *218:41 *4546:C 40.5271 
7 *218:41 *218:52 3.31429 
8 *218:52 *4464:A1 38 
9 *218:52 *218:67 29.9557 
10 *218:67 *4574:B2 23 
11 *218:33 *4567:A2 23 
12 *218:10 *4463:A 23.4971 
13 *4643:X *218:95 43.8207 
14 *218:95 *4505:B 38 
*END

*D_NET *219 0.00973753
*CONN
*I *4510:B1 I *D sky130_fd_sc_hd__a21oi_1
*I *4554:A I *D sky130_fd_sc_hd__or3_1
*I *4513:B2 I *D sky130_fd_sc_hd__o22a_1
*I *4525:A1 I *D sky130_fd_sc_hd__a2111o_1
*I *4521:A1 I *D sky130_fd_sc_hd__o2111a_1
*I *4552:A1 I *D sky130_fd_sc_hd__a32o_1
*I *4492:B1 I *D sky130_fd_sc_hd__o21a_1
*I *4467:A I *D sky130_fd_sc_hd__nand2_4
*I *4493:A_N I *D sky130_fd_sc_hd__and2b_4
*I *4671:X O *D sky130_fd_sc_hd__buf_2
*CAP
1 *4510:B1 0
2 *4554:A 2.34823e-05
3 *4513:B2 0
4 *4525:A1 2.34823e-05
5 *4521:A1 0
6 *4552:A1 0
7 *4492:B1 0.000280713
8 *4467:A 0
9 *4493:A_N 0.000233176
10 *4671:X 0.000112734
11 *219:92 0.000110518
12 *219:67 0.000241659
13 *219:59 0.00048766
14 *219:42 0.000816899
15 *219:38 0.000781034
16 *219:36 0.000606793
17 *219:34 0.000208823
18 *219:16 0.000625762
19 *219:12 0.000828524
20 *219:8 0.000392238
21 *4492:B1 *228:20 0
22 *4493:A_N *222:51 0.000131304
23 *219:16 *222:10 0
24 *219:34 *230:50 4.79544e-05
25 *219:36 *230:50 2.93845e-05
26 *219:38 *230:50 6.53382e-05
27 *219:38 *232:20 0.000525406
28 *219:59 *4476:A 5.50049e-05
29 *219:59 *228:14 0
30 *219:67 *234:16 0.000191157
31 *219:92 *232:12 5.3304e-05
32 *4510:A1 *219:8 2.64616e-05
33 *4510:A2 *219:8 0
34 *4554:C *219:12 0.000397725
35 *4554:C *219:34 0.000227208
36 *86:6 *219:42 0.000315857
37 *87:12 *219:67 0
38 *112:8 *219:38 4.5707e-05
39 *143:33 *219:8 1.14876e-05
40 *155:14 *219:59 0.000166987
41 *155:14 *219:67 5.67058e-05
42 *155:20 *219:67 0.00035322
43 *158:62 *219:59 5.50049e-05
44 *158:62 *219:67 5.67058e-05
45 *167:8 *219:16 0.000127498
46 *167:20 *219:92 2.93845e-05
47 *167:75 *219:12 0
48 *167:75 *219:16 0
49 *167:75 *219:92 5.0135e-05
50 *173:77 *219:67 0.000163823
51 *176:6 *219:59 3.59635e-05
52 *176:6 *219:67 6.22712e-05
53 *181:38 *219:38 2.64616e-05
54 *181:38 *219:42 4.6595e-05
55 *181:46 *219:42 9.45591e-05
56 *190:57 *4492:B1 1.01436e-05
57 *193:16 *4493:A_N 3.22879e-05
58 *193:39 *4492:B1 0.000202908
59 *193:39 *219:59 0.000105787
60 *193:61 *219:16 0
61 *193:61 *219:92 0.000164291
*RES
1 *4671:X *219:8 24.595 
2 *219:8 *219:12 20.7793 
3 *219:12 *219:16 22.8921 
4 *219:16 *4493:A_N 28.4064 
5 *219:16 *4467:A 23 
6 *219:12 *219:34 18.48 
7 *219:34 *219:36 0.621429 
8 *219:36 *219:38 9.19714 
9 *219:38 *219:42 21.3386 
10 *219:42 *4492:B1 44.0486 
11 *219:42 *219:59 20.365 
12 *219:59 *219:67 37.0429 
13 *219:67 *4552:A1 23 
14 *219:59 *4521:A1 23 
15 *219:38 *4525:A1 23.4971 
16 *219:36 *219:92 32.8793 
17 *219:92 *4513:B2 23 
18 *219:34 *4554:A 23.4971 
19 *219:8 *4510:B1 23 
*END

*D_NET *220 0.00934647
*CONN
*I *4553:C_N I *D sky130_fd_sc_hd__or3b_1
*I *4550:C1 I *D sky130_fd_sc_hd__a211o_1
*I *4570:C1 I *D sky130_fd_sc_hd__a211o_1
*I *4542:A1 I *D sky130_fd_sc_hd__o311a_1
*I *4505:A I *D sky130_fd_sc_hd__nand2_1
*I *4540:A1 I *D sky130_fd_sc_hd__o221a_1
*I *4477:B1 I *D sky130_fd_sc_hd__a21oi_4
*I *4644:X O *D sky130_fd_sc_hd__buf_2
*CAP
1 *4553:C_N 0
2 *4550:C1 0
3 *4570:C1 0
4 *4542:A1 0
5 *4505:A 0.000281457
6 *4540:A1 9.61556e-05
7 *4477:B1 0.000344715
8 *4644:X 0.000121074
9 *220:98 0.000197795
10 *220:87 0.000122588
11 *220:28 0.000654581
12 *220:22 0.000697017
13 *220:16 0.00026617
14 *220:14 0.00112591
15 *220:8 0.00139461
16 *220:6 0.000529306
17 *4477:B1 *229:92 8.48131e-05
18 *4477:B1 *230:68 5.50049e-05
19 *4477:B1 *231:10 5.67058e-05
20 *4477:B1 *234:49 8.68903e-05
21 *220:22 *229:92 0
22 *220:28 *229:92 3.95159e-06
23 *220:87 *4459:A 0
24 *220:87 *231:41 0
25 *4533:A *220:98 0.000164291
26 *4540:A2 *4540:A1 5.41385e-05
27 *4542:A3 *220:16 0.000184174
28 *4542:A3 *220:22 5.589e-05
29 *4543:A2 *4505:A 0.000141954
30 *4550:A2 *220:87 9.84794e-05
31 *4553:B *220:98 0.00019747
32 *100:10 *4540:A1 5.50106e-05
33 *100:10 *220:22 0
34 *100:10 *220:28 6.28601e-06
35 *101:10 *220:22 0.000138708
36 *149:28 *220:22 4.98718e-06
37 *154:42 *220:14 0.000166513
38 *154:42 *220:16 0.000169683
39 *155:20 *220:6 0.000103647
40 *155:20 *220:8 0.000107611
41 *155:20 *220:14 9.6103e-05
42 *155:20 *220:87 9.84794e-05
43 *155:24 *220:14 0.000288134
44 *155:26 *220:14 0.000157309
45 *155:26 *220:16 1.14452e-05
46 *157:47 *220:87 6.25068e-05
47 *158:16 *220:14 0.000788866
48 *161:58 *220:98 0
49 *167:34 *4540:A1 0
50 *173:110 *4505:A 5.97178e-05
51 *194:54 *220:87 1.01436e-05
52 *195:46 *4540:A1 6.17437e-06
*RES
1 *4644:X *220:6 25.0507 
2 *220:6 *220:8 2.52714 
3 *220:8 *220:14 33.6014 
4 *220:14 *220:16 2.61 
5 *220:16 *220:22 4.785 
6 *220:22 *220:28 2.79643 
7 *220:28 *4477:B1 44.7529 
8 *220:28 *4540:A1 40.0714 
9 *220:22 *4505:A 42.3293 
10 *220:16 *4542:A1 38 
11 *220:14 *4570:C1 38 
12 *220:8 *220:87 33.0657 
13 *220:87 *4550:C1 23 
14 *220:6 *220:98 34.7229 
15 *220:98 *4553:C_N 23 
*END

*D_NET *221 0.00851805
*CONN
*I *4446:A1 I *D sky130_fd_sc_hd__mux2_1
*I *4444:A I *D sky130_fd_sc_hd__nand2_2
*I *4636:X O *D sky130_fd_sc_hd__buf_1
*CAP
1 *4446:A1 0
2 *4444:A 0
3 *4636:X 0
4 *221:20 0.000368577
5 *221:12 0.00102895
6 *221:10 0.00119663
7 *221:6 0.000536248
8 *221:10 *4443:A1 0
9 *221:10 *225:62 1.12487e-05
10 *221:12 *4446:S 0.000228903
11 *221:12 *225:62 0.000614061
12 *221:12 *241:6 0.00112976
13 *221:12 *241:59 5.3304e-05
14 *4446:A0 *221:12 6.17437e-06
15 *4446:A0 *221:20 2.64616e-05
16 *4582:A1 *221:10 0.00021356
17 *4631:A *221:10 0.000261248
18 *3:13 *221:10 0.000203853
19 *64:16 *221:20 0.000144455
20 *186:12 *221:20 5.41385e-05
21 *200:18 *221:10 0.000330144
22 *200:24 *221:10 0.000724977
23 *200:24 *221:12 0.000850858
24 *201:10 *221:10 0.000127272
25 *201:16 *221:10 0.000407227
*RES
1 *4636:X *221:6 38 
2 *221:6 *221:10 33.8086 
3 *221:10 *221:12 24.4429 
4 *221:12 *221:20 37.83 
5 *221:20 *4444:A 23 
6 *221:12 *4446:A1 23 
*END

*D_NET *222 0.00674332
*CONN
*I *4493:B I *D sky130_fd_sc_hd__and2b_4
*I *4467:B I *D sky130_fd_sc_hd__nand2_4
*I *4481:A I *D sky130_fd_sc_hd__nor2_4
*I *4490:A1 I *D sky130_fd_sc_hd__mux2_8
*I *4645:X O *D sky130_fd_sc_hd__buf_2
*CAP
1 *4493:B 0
2 *4467:B 0.000319033
3 *4481:A 0.000223159
4 *4490:A1 0.000259587
5 *4645:X 8.91594e-05
6 *222:51 0.000276582
7 *222:12 0.000670386
8 *222:10 0.00150391
9 *222:8 0.00136298
10 *4481:A *223:24 0.000576699
11 *4490:A1 *230:39 0
12 *222:8 *236:14 2.79662e-05
13 *222:10 *4471:A1 6.43005e-05
14 *222:10 *4671:A 4.4382e-05
15 *222:10 *230:24 0
16 *222:10 *230:35 0
17 *222:10 *230:39 0
18 *222:12 *230:39 0
19 *4493:A_N *222:51 0.000131304
20 *4515:A2 *222:10 0
21 *4515:B2 *222:8 1.24376e-05
22 *4554:C *222:10 0
23 *71:10 *222:10 0
24 *153:10 *222:10 0
25 *155:10 *222:10 0
26 *167:8 *222:10 0
27 *167:8 *222:12 0
28 *170:18 *222:10 0.000620089
29 *171:8 *222:10 0.000561346
30 *193:16 *222:51 0
31 *219:16 *222:10 0
*RES
1 *4645:X *222:8 39.0979 
2 *222:8 *222:10 27.26 
3 *222:10 *222:12 3.31429 
4 *222:12 *4490:A1 19.5882 
5 *222:12 *4481:A 44.3386 
6 *222:10 *4467:B 38.6214 
7 *4467:B *222:51 28.4271 
8 *222:51 *4493:B 23 
*END

*D_NET *223 0.0102283
*CONN
*I *4481:B I *D sky130_fd_sc_hd__nor2_4
*I *4448:A I *D sky130_fd_sc_hd__inv_1
*I *4522:A_N I *D sky130_fd_sc_hd__and3b_1
*I *4618:A I *D sky130_fd_sc_hd__clkbuf_1
*I *4468:A_N I *D sky130_fd_sc_hd__nand2b_4
*I *4490:S I *D sky130_fd_sc_hd__mux2_8
*I *4672:X O *D sky130_fd_sc_hd__buf_2
*CAP
1 *4481:B 0
2 *4448:A 0
3 *4522:A_N 0
4 *4618:A 0
5 *4468:A_N 0
6 *4490:S 0.000265101
7 *4672:X 0.000397957
8 *223:66 0.00026683
9 *223:53 0.00048371
10 *223:45 0.00109679
11 *223:32 0.00169013
12 *223:24 0.00167059
13 *223:8 0.00152343
14 *223:45 *230:56 0.000255074
15 *223:45 *230:68 0.000629453
16 *223:53 *230:68 0.000695899
17 *223:66 *4457:A 0.000195248
18 *223:66 *4457:B 0
19 *223:66 *231:41 0
20 *223:66 *234:22 0.000181013
21 *4481:A *223:24 0.000576699
22 *4537:A2 *223:53 0.00014196
23 *4537:B1 *223:53 5.67058e-05
24 *148:8 *223:53 0.000101697
25 *168:8 *223:32 0
*RES
1 *4672:X *223:8 45.54 
2 *223:8 *4490:S 19.8161 
3 *223:8 *223:24 32.7936 
4 *223:24 *223:32 43.7129 
5 *223:32 *4468:A_N 23 
6 *223:32 *223:45 20.9991 
7 *223:45 *223:53 8.72589 
8 *223:53 *4618:A 23 
9 *223:53 *223:66 35.6964 
10 *223:66 *4522:A_N 23 
11 *223:45 *4448:A 23 
12 *223:24 *4481:B 23 
*END

*D_NET *224 0.0142062
*CONN
*I *4466:B1 I *D sky130_fd_sc_hd__o211a_1
*I *4559:A1 I *D sky130_fd_sc_hd__a32o_1
*I *4558:A I *D sky130_fd_sc_hd__nor2_1
*I *4544:C1 I *D sky130_fd_sc_hd__a221o_1
*I *4575:B1 I *D sky130_fd_sc_hd__a21o_1
*I *4502:A I *D sky130_fd_sc_hd__nand2_2
*I *4479:A I *D sky130_fd_sc_hd__nor2_4
*I *4673:X O *D sky130_fd_sc_hd__buf_2
*CAP
1 *4466:B1 1.49546e-05
2 *4559:A1 0.000232147
3 *4558:A 2.70359e-05
4 *4544:C1 4.79365e-05
5 *4575:B1 0
6 *4502:A 0.000326899
7 *4479:A 3.76539e-05
8 *4673:X 0.000105518
9 *224:80 0.00058104
10 *224:58 0.00113683
11 *224:37 0.00146373
12 *224:28 0.000737328
13 *224:20 0.000865778
14 *224:18 0.000764412
15 *224:14 0.000770482
16 *224:8 0.000536659
17 *4544:C1 *238:22 5.30121e-05
18 *224:14 *4527:B1 2.64616e-05
19 *224:58 *234:128 6.68628e-05
20 *4456:A *224:28 2.96912e-05
21 *4465:B *224:28 7.94612e-05
22 *4466:C1 *224:18 0.000704525
23 *4527:A1 *4466:B1 3.91386e-05
24 *4527:A1 *224:14 0.000537728
25 *4531:A1 *224:14 2.18506e-05
26 *4531:A2 *224:14 0.000143655
27 *4547:A1 *224:58 0
28 *4548:A1 *224:80 0.000296965
29 *4558:B *4558:A 3.91386e-05
30 *4558:B *224:80 1.24376e-05
31 *4559:B1 *4559:A1 2.39868e-05
32 *4559:B2 *4558:A 5.50106e-05
33 *4559:B2 *4559:A1 0.000173278
34 *4575:A1 *224:58 0.000177604
35 *89:10 *224:14 0.000269769
36 *94:31 *4544:C1 9.41704e-05
37 *102:14 *224:28 0
38 *103:10 *224:58 0
39 *143:65 *224:8 0
40 *154:42 *224:28 3.70187e-05
41 *158:16 *4502:A 0.000704525
42 *161:39 *224:8 0
43 *161:80 *4559:A1 4.03613e-05
44 *161:80 *224:80 5.61255e-06
45 *163:69 *224:14 1.61361e-05
46 *163:75 *224:14 0.000349807
47 *164:19 *4502:A 4.5051e-05
48 *164:32 *224:58 0
49 *173:94 *224:28 8.06804e-06
50 *173:100 *224:28 9.55012e-05
51 *173:104 *4502:A 8.57765e-05
52 *173:104 *224:58 4.6318e-06
53 *173:110 *4502:A 1.58805e-05
54 *173:119 *4502:A 0.000618478
55 *173:154 *224:20 0.000211979
56 *173:154 *224:28 0.000349386
57 *173:154 *224:80 0.000493399
58 *177:52 *224:14 8.48502e-06
59 *177:52 *224:18 4.6595e-05
60 *179:12 *224:58 0
61 *179:38 *224:58 0
62 *186:61 *224:58 0.000576362
*RES
1 *4673:X *224:8 39.5536 
2 *224:8 *224:14 26.6 
3 *224:14 *224:18 23.7207 
4 *224:18 *224:20 2.96214 
5 *224:20 *224:28 27.9671 
6 *224:28 *4479:A 23.6214 
7 *224:28 *224:37 15 
8 *224:37 *4502:A 49.2271 
9 *224:37 *224:58 38.1379 
10 *224:58 *4575:B1 23 
11 *224:20 *4544:C1 39.0979 
12 *224:18 *224:80 22.9543 
13 *224:80 *4558:A 24.1186 
14 *224:80 *4559:A1 28.3857 
15 *224:14 *4466:B1 23.4971 
*END

*D_NET *225 0.0123339
*CONN
*I *4595:A I *D sky130_fd_sc_hd__inv_1
*I *4596:A I *D sky130_fd_sc_hd__inv_1
*I *4627:A I *D sky130_fd_sc_hd__clkbuf_2
*I *4597:A I *D sky130_fd_sc_hd__inv_1
*I *4598:A I *D sky130_fd_sc_hd__inv_1
*I *4599:A I *D sky130_fd_sc_hd__inv_1
*I *4646:X O *D sky130_fd_sc_hd__clkbuf_2
*CAP
1 *4595:A 0
2 *4596:A 6.1634e-05
3 *4627:A 0
4 *4597:A 2.65313e-05
5 *4598:A 2.65313e-05
6 *4599:A 5.33674e-05
7 *4646:X 0.00031252
8 *225:62 0.000569726
9 *225:56 0.00149609
10 *225:50 0.00160776
11 *225:35 0.00119766
12 *225:24 0.000707509
13 *225:22 0.000512031
14 *225:50 *247:10 1.13227e-05
15 *225:56 *4443:A1 0
16 *225:56 *245:33 6.08617e-05
17 *225:56 *247:10 9.98915e-05
18 *225:62 *4443:A1 0
19 *225:62 *249:14 0
20 *4582:A1 *225:56 0.000233016
21 *4583:A *4596:A 0.000242749
22 *4583:B *4596:A 0.000109521
23 *4631:A *225:56 9.67842e-05
24 *5:13 *225:22 0.000119943
25 *5:13 *225:24 0.000239789
26 *5:13 *225:35 0.000437176
27 *5:13 *225:50 0.00051613
28 *55:10 *225:50 0.000319305
29 *57:10 *225:50 5.45887e-05
30 *58:10 *225:35 0.000116314
31 *59:10 *4599:A 7.84431e-05
32 *59:10 *225:22 0.000227497
33 *199:52 *4596:A 9.84794e-05
34 *199:52 *225:56 0.000186697
35 *200:18 *225:56 0.000249909
36 *200:18 *225:62 7.79942e-05
37 *200:24 *225:62 0.00133734
38 *200:66 *225:50 0
39 *204:10 *225:22 0.000220066
40 *204:10 *225:24 3.35885e-06
41 *221:10 *225:62 1.12487e-05
42 *221:12 *225:62 0.000614061
*RES
1 *4646:X *4599:A 47.3102 
2 *4646:X *225:22 46.3375 
3 *225:22 *225:24 6.3075 
4 *225:24 *4598:A 38.3262 
5 *225:24 *225:35 11.4136 
6 *225:35 *4597:A 38.3262 
7 *225:35 *225:50 33.8345 
8 *225:50 *225:56 34.052 
9 *225:56 *225:62 32.8764 
10 *225:62 *4627:A 23 
11 *225:56 *4596:A 40.9518 
12 *225:50 *4595:A 23 
*END

*D_NET *226 0.002229
*CONN
*I *4447:A1 I *D sky130_fd_sc_hd__mux2_1
*I *4637:X O *D sky130_fd_sc_hd__buf_1
*CAP
1 *4447:A1 0
2 *4637:X 0.000186286
3 *226:12 0.000733569
4 *226:8 0.000919854
5 *226:8 *235:8 8.06804e-06
6 *226:12 *243:12 0
7 *226:12 *249:14 0
8 *9:15 *226:12 6.16439e-05
9 *10:15 *226:12 2.11827e-05
10 *48:10 *226:12 3.56537e-05
11 *199:36 *226:8 0.0002246
12 *199:36 *226:12 0
13 *207:12 *226:12 3.81391e-05
*RES
1 *4637:X *226:8 41.48 
2 *226:8 *226:12 28.8786 
3 *226:12 *4447:A1 23 
*END

*D_NET *227 0.00932968
*CONN
*I *4512:A1 I *D sky130_fd_sc_hd__o32a_1
*I *4511:B1 I *D sky130_fd_sc_hd__o31ai_1
*I *4521:B1 I *D sky130_fd_sc_hd__o2111a_1
*I *4673:A I *D sky130_fd_sc_hd__buf_2
*I *4614:X O *D sky130_fd_sc_hd__clkbuf_1
*CAP
1 *4512:A1 0
2 *4511:B1 2.0462e-05
3 *4521:B1 0
4 *4673:A 0.0003037
5 *4614:X 0.000533993
6 *227:30 0.000878777
7 *227:22 0.00157652
8 *227:16 0.00114454
9 *227:10 0.000656628
10 *227:10 *228:12 0.00033936
11 *227:10 *232:37 0.000157309
12 *227:16 *232:37 0.000160191
13 *227:22 *4476:A 0.000386044
14 *227:22 *4511:A1 1.5547e-05
15 *4474:A *227:22 2.35426e-05
16 *4511:A3 *227:22 0.000159235
17 *73:10 *227:16 0.000139346
18 *73:10 *227:22 1.32314e-05
19 *87:12 *227:30 0.000555954
20 *155:14 *227:16 1.03955e-05
21 *155:14 *227:22 3.17516e-05
22 *158:43 *4673:A 0.000416516
23 *167:75 *227:10 0
24 *173:30 *4511:B1 1.38616e-05
25 *173:30 *227:16 7.91518e-05
26 *173:77 *227:30 0.00036719
27 *174:8 *227:22 0.00011762
28 *176:6 *227:22 0.000337375
29 *176:6 *227:30 9.32118e-05
30 *176:14 *227:30 1.51028e-05
31 *193:61 *227:10 1.14452e-05
32 *193:61 *227:16 0.000160191
33 *195:30 *4673:A 5.3304e-05
34 *195:30 *227:30 0.000558185
*RES
1 *4614:X *227:10 47.0729 
2 *227:10 *227:16 18.8321 
3 *227:16 *227:22 16.9857 
4 *227:22 *227:30 42.9257 
5 *227:30 *4673:A 31.2443 
6 *227:22 *4521:B1 23 
7 *227:16 *4511:B1 23.4971 
8 *227:10 *4512:A1 38 
*END

*D_NET *228 0.0076331
*CONN
*I *4471:B1 I *D sky130_fd_sc_hd__a41o_1
*I *4518:C1 I *D sky130_fd_sc_hd__a211o_1
*I *4525:D1 I *D sky130_fd_sc_hd__a2111o_1
*I *4497:B1 I *D sky130_fd_sc_hd__o21ai_1
*I *4496:A1 I *D sky130_fd_sc_hd__o211a_1
*I *4615:X O *D sky130_fd_sc_hd__buf_1
*CAP
1 *4471:B1 0
2 *4518:C1 0.000354632
3 *4525:D1 0
4 *4497:B1 0
5 *4496:A1 4.58545e-05
6 *4615:X 0.000173872
7 *228:39 0.00016188
8 *228:20 0.0007406
9 *228:14 0.00104507
10 *228:12 0.0017646
11 *228:8 0.00107164
12 *4492:B1 *228:20 0
13 *4497:A2 *228:39 0.000168558
14 *4518:B1 *4518:C1 3.91386e-05
15 *4614:A *228:8 0.000141154
16 *4614:A *228:12 0.000141052
17 *163:83 *228:39 0
18 *168:8 *228:39 5.26204e-05
19 *168:21 *228:20 0.000502818
20 *168:36 *228:14 7.68676e-05
21 *168:36 *228:20 4.98647e-05
22 *168:51 *4518:C1 0
23 *168:51 *228:14 0
24 *179:72 *4518:C1 2.35426e-05
25 *179:85 *228:12 0.000280928
26 *180:10 *4518:C1 2.31916e-05
27 *190:21 *228:20 1.56665e-05
28 *190:33 *4496:A1 3.3387e-05
29 *190:33 *228:20 5.70419e-05
30 *190:57 *228:20 0
31 *193:16 *4496:A1 2.64616e-05
32 *193:16 *228:20 0.000266293
33 *193:29 *228:39 3.70187e-05
34 *195:59 *228:20 0
35 *219:59 *228:14 0
36 *227:10 *228:12 0.00033936
*RES
1 *4615:X *228:8 26.5007 
2 *228:8 *228:12 33.7257 
3 *228:12 *228:14 8.59643 
4 *228:14 *228:20 28.9821 
5 *228:20 *4496:A1 24.1186 
6 *228:20 *228:39 33.8529 
7 *228:39 *4497:B1 23 
8 *228:14 *4525:D1 38 
9 *228:12 *4518:C1 44.1107 
10 *228:8 *4471:B1 23 
*END

*D_NET *229 0.0120819
*CONN
*I *4522:B I *D sky130_fd_sc_hd__and3b_1
*I *4457:B I *D sky130_fd_sc_hd__xnor2_2
*I *4570:A2 I *D sky130_fd_sc_hd__a211o_1
*I *4454:B I *D sky130_fd_sc_hd__nand2b_2
*I *4494:A_N I *D sky130_fd_sc_hd__and2b_4
*I *4569:A2 I *D sky130_fd_sc_hd__a31oi_1
*I *4464:A2 I *D sky130_fd_sc_hd__a21oi_2
*I *4458:B I *D sky130_fd_sc_hd__xor2_2
*I *4546:D I *D sky130_fd_sc_hd__and4_4
*I *4463:B I *D sky130_fd_sc_hd__nand2_4
*I *4616:X O *D sky130_fd_sc_hd__clkbuf_2
*CAP
1 *4522:B 0.000174537
2 *4457:B 0.000280997
3 *4570:A2 0
4 *4454:B 0
5 *4494:A_N 0
6 *4569:A2 0
7 *4464:A2 0
8 *4458:B 4.716e-05
9 *4546:D 0
10 *4463:B 9.15058e-05
11 *4616:X 0
12 *229:101 0.00107568
13 *229:92 0.000494435
14 *229:79 0.000506176
15 *229:77 0.00126489
16 *229:56 0.000120808
17 *229:42 0.00032773
18 *229:33 0.000375618
19 *229:29 0.000644808
20 *229:21 0.000521615
21 *229:6 0.000366282
22 *229:4 0.000815114
23 *4457:B *4457:A 0
24 *4457:B *231:41 0.000114083
25 *4458:B *4458:A 2.87369e-05
26 *4522:B *231:41 0.000188916
27 *229:6 *4616:A 5.41385e-05
28 *229:29 *234:63 0
29 *229:29 *234:74 0
30 *229:33 *4458:A 2.02517e-05
31 *229:33 *234:100 1.59289e-05
32 *229:42 *4458:A 2.44913e-05
33 *229:42 *234:100 0.000100069
34 *229:77 *4616:A 7.1349e-05
35 *229:77 *230:80 0.000422536
36 *229:92 *231:23 0
37 *229:92 *234:49 1.01436e-05
38 *229:101 *234:39 0.00121298
39 *229:101 *234:49 5.50106e-05
40 *4477:B1 *229:92 8.48131e-05
41 *4542:B1 *229:92 2.96154e-05
42 *4546:C *229:42 0.000221715
43 *4572:A3 *229:33 2.93747e-05
44 *68:8 *229:92 3.39231e-05
45 *83:12 *4522:B 5.3304e-05
46 *100:10 *229:92 0.000138718
47 *101:10 *229:92 0
48 *102:14 *229:92 0.000351626
49 *105:14 *229:33 5.25626e-05
50 *154:14 *229:77 5.2894e-05
51 *154:27 *229:92 0
52 *158:12 *4458:B 9.84794e-05
53 *158:12 *229:42 0.00022109
54 *163:10 *4463:B 5.79559e-05
55 *163:10 *229:6 4.21048e-05
56 *163:10 *229:21 0.000164851
57 *163:20 *229:29 0
58 *173:110 *229:92 0
59 *179:12 *229:92 9.53602e-05
60 *194:6 *229:29 2.93335e-05
61 *194:36 *229:92 0.000192087
62 *194:38 *229:92 1.94693e-05
63 *194:38 *229:101 7.43025e-06
64 *218:10 *229:6 3.22763e-05
65 *218:10 *229:77 2.80757e-05
66 *218:16 *4463:B 1.59071e-05
67 *218:16 *229:6 3.18142e-05
68 *218:16 *229:21 0
69 *218:16 *229:29 3.70094e-05
70 *218:33 *229:29 0.000411299
71 *218:52 *229:56 9.63918e-05
72 *218:95 *229:77 2.24793e-05
73 *218:95 *229:92 0
74 *220:22 *229:92 0
75 *220:28 *229:92 3.95159e-06
76 *223:66 *4457:B 0
*RES
1 *4616:X *229:4 23 
2 *229:4 *229:6 3.48 
3 *229:6 *4463:B 24.9471 
4 *229:6 *229:21 32.2579 
5 *229:21 *229:29 39.4664 
6 *229:29 *229:33 3.50071 
7 *229:33 *4546:D 23 
8 *229:33 *229:42 4.80571 
9 *229:42 *4458:B 1.5225 
10 *229:42 *229:56 32.61 
11 *229:56 *4464:A2 23 
12 *229:29 *4569:A2 23 
13 *229:21 *4494:A_N 23 
14 *229:4 *229:77 13.8786 
15 *229:77 *229:79 0.497143 
16 *229:79 *4454:B 23 
17 *229:79 *229:92 42.035 
18 *229:92 *4570:A2 23 
19 *229:77 *229:101 29.9143 
20 *229:101 *4457:B 43.4271 
21 *229:101 *4522:B 41.2314 
*END

*D_NET *230 0.0302303
*CONN
*I *4453:A I *D sky130_fd_sc_hd__clkinv_1
*I *4562:A I *D sky130_fd_sc_hd__or3_1
*I *4455:A3 I *D sky130_fd_sc_hd__a31oi_4
*I *4511:A1 I *D sky130_fd_sc_hd__o31ai_1
*I *4468:B I *D sky130_fd_sc_hd__nand2b_4
*I *4545:B I *D sky130_fd_sc_hd__nand2_1
*I *4616:A I *D sky130_fd_sc_hd__clkbuf_2
*I *4490:A0 I *D sky130_fd_sc_hd__mux2_8
*I *4471:A4 I *D sky130_fd_sc_hd__a41o_1
*I *4470:B I *D sky130_fd_sc_hd__or2_4
*I *4617:X O *D sky130_fd_sc_hd__clkbuf_2
*CAP
1 *4453:A 0
2 *4562:A 0
3 *4455:A3 0.000423119
4 *4511:A1 0.00014166
5 *4468:B 2.34823e-05
6 *4545:B 0.00052969
7 *4616:A 4.92544e-05
8 *4490:A0 0
9 *4471:A4 0
10 *4470:B 2.268e-05
11 *4617:X 9.20747e-05
12 *230:151 0.000530478
13 *230:143 0.00104606
14 *230:91 0.00128829
15 *230:80 0.00115858
16 *230:68 0.00212316
17 *230:56 0.00315507
18 *230:50 0.00211434
19 *230:46 0.00103665
20 *230:39 0.000751445
21 *230:35 0.0013067
22 *230:24 0.000990252
23 *230:22 0.00163081
24 *230:20 0.00074963
25 *4511:A1 *232:20 0
26 *4545:B *238:36 0.000205604
27 *230:22 *236:10 8.26569e-05
28 *230:24 *4471:A1 0
29 *230:35 *4449:C 0
30 *230:35 *4471:A1 0
31 *230:35 *4671:A 0
32 *230:39 *4449:C 0
33 *230:39 *232:104 0
34 *230:50 *232:20 0.00030894
35 *230:56 *232:20 0
36 *230:68 *231:10 0.000736328
37 *230:68 *231:37 3.22879e-05
38 *230:68 *234:49 0.000269775
39 *230:68 *234:63 5.67058e-05
40 *230:80 *231:23 5.52658e-05
41 *230:143 *236:10 6.71408e-06
42 *230:151 *232:37 0.000250435
43 *4455:A1 *4455:A3 0.000238208
44 *4472:A2 *230:151 4.5051e-05
45 *4472:B1 *230:143 0.00028999
46 *4472:B1 *230:151 0.000228001
47 *4477:B1 *230:68 5.50049e-05
48 *4490:A1 *230:39 0
49 *4511:A3 *4511:A1 1.5547e-05
50 *4515:B1 *230:151 0.000168744
51 *4554:B *230:50 4.79641e-05
52 *4554:C *230:50 0.000268074
53 *4563:A1 *230:151 0
54 *4574:B1 *4545:B 2.03764e-06
55 *4621:A *230:22 6.48142e-05
56 *4621:A *230:24 0.000110913
57 *64:24 *4470:B 3.22879e-05
58 *64:24 *230:20 9.84851e-05
59 *65:36 *230:91 0.000188926
60 *75:10 *4511:A1 0.000207219
61 *75:10 *230:56 0.000163352
62 *112:8 *230:50 0.000393287
63 *144:51 *230:24 0
64 *145:10 *230:24 0
65 *145:16 *230:24 0
66 *145:22 *230:24 0
67 *145:22 *230:35 0
68 *146:10 *230:22 0.00016046
69 *149:14 *230:56 0
70 *154:14 *230:80 0
71 *155:10 *4455:A3 0.000122226
72 *155:10 *230:50 0.000269555
73 *161:104 *230:91 0.000440529
74 *163:30 *4545:B 9.92345e-05
75 *163:43 *4545:B 0.000132178
76 *168:21 *230:56 0
77 *168:51 *230:151 0.000139352
78 *170:8 *230:22 0
79 *170:18 *230:22 0
80 *170:18 *230:24 0
81 *172:10 *230:151 9.24795e-06
82 *173:38 *4511:A1 7.21237e-05
83 *173:49 *4511:A1 4.6318e-06
84 *173:166 *230:151 0
85 *177:6 *230:68 0.000311554
86 *177:10 *230:91 0
87 *177:14 *4545:B 1.71983e-05
88 *181:8 *230:56 0
89 *181:23 *230:56 0
90 *181:34 *230:56 0
91 *190:12 *230:56 0
92 *191:10 *230:56 0
93 *194:10 *230:91 0.00139238
94 *218:10 *4616:A 0.000228909
95 *218:10 *230:80 0.000727076
96 *218:67 *4545:B 3.08847e-05
97 *219:34 *230:50 4.79544e-05
98 *219:36 *230:50 2.93845e-05
99 *219:38 *230:50 6.53382e-05
100 *222:10 *230:24 0
101 *222:10 *230:35 0
102 *222:10 *230:39 0
103 *222:12 *230:39 0
104 *223:45 *230:56 0.000255074
105 *223:45 *230:68 0.000629453
106 *223:53 *230:68 0.000695899
107 *227:22 *4511:A1 1.5547e-05
108 *229:6 *4616:A 5.41385e-05
109 *229:77 *4616:A 7.1349e-05
110 *229:77 *230:80 0.000422536
*RES
1 *4617:X *4470:B 46.6214 
2 *4617:X *230:20 39.0979 
3 *230:20 *230:22 14.2307 
4 *230:22 *230:24 7.89214 
5 *230:24 *4471:A4 38 
6 *230:24 *230:35 8.86571 
7 *230:35 *230:39 28.5264 
8 *230:39 *4490:A0 23 
9 *230:35 *230:46 15 
10 *230:46 *230:50 30.8671 
11 *230:50 *230:56 41.6386 
12 *230:56 *230:68 43.7279 
13 *230:68 *230:80 41.2686 
14 *230:80 *4616:A 25.5271 
15 *230:80 *230:91 36.9779 
16 *230:91 *4545:B 45.6643 
17 *230:56 *4468:B 23.4971 
18 *230:50 *4511:A1 41.1434 
19 *230:46 *4455:A3 32.8807 
20 *230:22 *230:143 22.9336 
21 *230:143 *230:151 41.5171 
22 *230:151 *4562:A 23 
23 *230:143 *4453:A 23 
*END

*D_NET *231 0.00717025
*CONN
*I *4459:A I *D sky130_fd_sc_hd__nor2_1
*I *4550:A1 I *D sky130_fd_sc_hd__a211o_1
*I *4643:A I *D sky130_fd_sc_hd__buf_2
*I *4477:A2 I *D sky130_fd_sc_hd__a21oi_4
*I *4618:X O *D sky130_fd_sc_hd__clkbuf_1
*CAP
1 *4459:A 0.000527185
2 *4550:A1 0
3 *4643:A 0
4 *4477:A2 5.74493e-05
5 *4618:X 0.000727724
6 *231:41 0.0014662
7 *231:37 0.000979019
8 *231:23 0.000178528
9 *231:10 0.000923699
10 *4477:A2 *234:49 4.17736e-05
11 *4477:A2 *234:63 0.00010018
12 *231:10 *234:49 0.000228909
13 *231:23 *234:49 0
14 *4457:B *231:41 0.000114083
15 *4477:B1 *231:10 5.67058e-05
16 *4522:B *231:41 0.000188916
17 *4551:A1 *4459:A 0
18 *94:10 *4459:A 0
19 *94:23 *4459:A 0
20 *94:31 *4459:A 0.000169213
21 *98:10 *231:41 0
22 *109:10 *4459:A 8.16356e-05
23 *111:10 *231:41 8.85189e-05
24 *113:10 *4459:A 7.70658e-05
25 *113:10 *231:41 7.8128e-05
26 *157:36 *231:41 0
27 *157:47 *231:41 0
28 *158:28 *4459:A 7.76948e-05
29 *158:43 *4459:A 0.000183733
30 *194:54 *4459:A 0
31 *220:87 *4459:A 0
32 *220:87 *231:41 0
33 *223:66 *231:41 0
34 *229:92 *231:23 0
35 *230:68 *231:10 0.000736328
36 *230:68 *231:37 3.22879e-05
37 *230:80 *231:23 5.52658e-05
*RES
1 *4618:X *231:10 40.9386 
2 *231:10 *4477:A2 24.5743 
3 *231:10 *231:23 32.9621 
4 *231:23 *4643:A 23 
5 *4618:X *231:37 38.6214 
6 *231:37 *231:41 16.965 
7 *231:41 *4550:A1 38 
8 *231:41 *4459:A 49.6621 
*END

*D_NET *232 0.0178904
*CONN
*I *4449:C I *D sky130_fd_sc_hd__and3_4
*I *4455:B1 I *D sky130_fd_sc_hd__a31oi_4
*I *4513:A1 I *D sky130_fd_sc_hd__o22a_1
*I *4470:A I *D sky130_fd_sc_hd__or2_4
*I *4450:B I *D sky130_fd_sc_hd__nand2b_4
*I *4495:B I *D sky130_fd_sc_hd__nand2b_4
*I *4469:B I *D sky130_fd_sc_hd__nand2_2
*I *4482:B I *D sky130_fd_sc_hd__or2_4
*I *4507:A I *D sky130_fd_sc_hd__nand2_1
*I *4476:A I *D sky130_fd_sc_hd__nand2_2
*I *4619:X O *D sky130_fd_sc_hd__clkbuf_2
*CAP
1 *4449:C 0.000270298
2 *4455:B1 0
3 *4513:A1 2.34823e-05
4 *4470:A 0.000349494
5 *4450:B 0.000221147
6 *4495:B 3.93308e-05
7 *4469:B 0
8 *4482:B 0
9 *4507:A 0.000512311
10 *4476:A 0.000203359
11 *4619:X 0
12 *232:104 0.000438244
13 *232:61 0.000125408
14 *232:52 8.60774e-05
15 *232:50 0.000304296
16 *232:46 0.000533094
17 *232:37 0.00216378
18 *232:20 0.000473978
19 *232:12 0.00204694
20 *232:6 0.000984327
21 *232:4 0.000903485
22 *4450:B *4450:A_N 0
23 *232:61 *4482:A 0.000181125
24 *4449:B *4449:C 8.60475e-05
25 *4511:A1 *232:20 0
26 *4511:A3 *4476:A 0.000137651
27 *4515:B1 *232:37 0.000115279
28 *4525:A2 *232:20 0.000111853
29 *4525:B1 *232:20 0.00015795
30 *4563:S *232:37 0.000193314
31 *4648:A *4450:B 0
32 *64:24 *4470:A 0.000407438
33 *64:24 *4507:A 0.000901871
34 *64:24 *232:46 9.30151e-05
35 *75:10 *232:37 0
36 *112:8 *232:20 0.000119313
37 *119:8 *232:37 0.000166513
38 *145:22 *4449:C 0.000314157
39 *145:28 *4449:C 0
40 *145:28 *232:104 0
41 *149:10 *232:37 8.4047e-05
42 *149:14 *232:12 0.000163352
43 *149:14 *232:37 7.39034e-05
44 *150:10 *4450:B 0.000236604
45 *150:10 *232:37 0.000145921
46 *150:10 *232:50 0.000164282
47 *150:20 *232:37 0
48 *155:14 *4476:A 0.000327001
49 *167:12 *232:6 0.000134065
50 *167:14 *232:6 1.40958e-05
51 *167:14 *232:12 2.30292e-05
52 *167:20 *4513:A1 0
53 *167:20 *232:12 5.3468e-05
54 *167:75 *232:37 0
55 *169:10 *232:37 0.000216721
56 *169:16 *232:37 0.000186591
57 *170:46 *4495:B 0.000148524
58 *170:46 *232:61 0.000223698
59 *172:10 *232:37 2.22269e-05
60 *173:30 *4449:C 0.000400204
61 *173:30 *232:37 6.35385e-05
62 *173:166 *232:37 0
63 *176:6 *4476:A 0.00010018
64 *179:85 *232:37 0
65 *193:61 *232:12 7.91596e-05
66 *193:61 *232:37 0.000112487
67 *195:10 *4450:B 1.62015e-05
68 *195:10 *4495:B 0.000274078
69 *195:10 *232:50 5.01247e-05
70 *195:10 *232:61 1.56762e-05
71 *219:38 *232:20 0.000525406
72 *219:59 *4476:A 5.50049e-05
73 *219:92 *232:12 5.3304e-05
74 *227:10 *232:37 0.000157309
75 *227:16 *232:37 0.000160191
76 *227:22 *4476:A 0.000386044
77 *230:35 *4449:C 0
78 *230:39 *4449:C 0
79 *230:39 *232:104 0
80 *230:50 *232:20 0.00030894
81 *230:56 *232:20 0
82 *230:151 *232:37 0.000250435
*RES
1 *4619:X *232:4 23 
2 *232:4 *232:6 12.5321 
3 *232:6 *232:12 19.785 
4 *232:12 *232:20 39.1764 
5 *232:20 *4476:A 46.7207 
6 *232:12 *232:37 47.7286 
7 *232:37 *4507:A 35.5321 
8 *232:37 *232:46 2.05071 
9 *232:46 *232:50 17.2579 
10 *232:50 *232:52 15 
11 *232:52 *4482:B 23 
12 *232:52 *232:61 3.02429 
13 *232:61 *4469:B 23 
14 *232:61 *4495:B 26.0036 
15 *232:50 *4450:B 42.7643 
16 *232:46 *4470:A 31.2443 
17 *232:6 *4513:A1 23.4971 
18 *232:4 *232:104 17.8793 
19 *232:104 *4455:B1 38 
20 *232:104 *4449:C 45.7471 
*END

*D_NET *233 0.00612514
*CONN
*I *4672:A I *D sky130_fd_sc_hd__buf_2
*I *4619:A I *D sky130_fd_sc_hd__clkbuf_2
*I *4620:X O *D sky130_fd_sc_hd__clkbuf_1
*CAP
1 *4672:A 0
2 *4619:A 0.000168796
3 *4620:X 5.45426e-05
4 *233:18 0.00146283
5 *233:12 0.00234753
6 *233:8 0.00110804
7 *233:12 *243:12 0
8 *233:12 *243:20 2.70469e-05
9 *233:18 *242:52 2.93845e-05
10 *54:25 *233:12 0.000319116
11 *143:10 *233:12 0
12 *161:10 *233:12 0.000253061
13 *162:8 *233:12 0.000354788
14 *185:12 *233:12 0
*RES
1 *4620:X *233:8 38.6214 
2 *233:8 *233:12 38.7386 
3 *233:12 *233:18 18.2907 
4 *233:18 *4619:A 26.0036 
5 *233:18 *4672:A 23 
*END

*D_NET *234 0.0279641
*CONN
*I *4522:C I *D sky130_fd_sc_hd__and3b_1
*I *4454:A_N I *D sky130_fd_sc_hd__nand2b_2
*I *4477:A1 I *D sky130_fd_sc_hd__a21oi_4
*I *4569:A1 I *D sky130_fd_sc_hd__a31oi_1
*I *4545:A I *D sky130_fd_sc_hd__nand2_1
*I *4576:A2 I *D sky130_fd_sc_hd__a311o_1
*I *4546:B I *D sky130_fd_sc_hd__and4_4
*I *4458:A I *D sky130_fd_sc_hd__xor2_2
*I *4567:B1 I *D sky130_fd_sc_hd__a21oi_1
*I *4457:A I *D sky130_fd_sc_hd__xnor2_2
*I *4621:X O *D sky130_fd_sc_hd__clkbuf_2
*CAP
1 *4522:C 0.000125792
2 *4454:A_N 0
3 *4477:A1 0
4 *4569:A1 1.81472e-05
5 *4545:A 0
6 *4576:A2 0
7 *4546:B 0
8 *4458:A 0.000297683
9 *4567:B1 6.54255e-05
10 *4457:A 0.000585887
11 *4621:X 0
12 *234:134 0.000112648
13 *234:128 0.000871144
14 *234:114 0.00130416
15 *234:100 0.000862165
16 *234:76 0.000297683
17 *234:74 0.000417563
18 *234:63 0.00163398
19 *234:49 0.00166785
20 *234:39 0.000608342
21 *234:22 0.00109418
22 *234:20 0.000923703
23 *234:16 0.00165996
24 *234:8 0.00229064
25 *234:4 0.00131014
26 *4458:A *4546:A 5.3304e-05
27 *234:114 *238:55 0
28 *234:128 *238:55 0.000212621
29 *4457:B *4457:A 0
30 *4458:B *4458:A 2.87369e-05
31 *4477:A2 *234:49 4.17736e-05
32 *4477:A2 *234:63 0.00010018
33 *4477:B1 *234:49 8.68903e-05
34 *4540:C1 *234:20 0.000431545
35 *4546:C *4458:A 6.82514e-05
36 *4572:A3 *4569:A1 5.73309e-05
37 *4572:A3 *234:100 2.77574e-05
38 *4577:B2 *234:134 0
39 *64:71 *234:128 0
40 *65:14 *234:114 1.44813e-05
41 *82:10 *234:16 0.000132025
42 *83:12 *234:20 0.000431545
43 *85:8 *234:16 0.000221193
44 *87:12 *234:16 0
45 *98:10 *4522:C 0.000227208
46 *104:14 *234:128 1.7992e-05
47 *105:14 *234:100 0.000170321
48 *123:8 *234:63 4.43717e-05
49 *123:8 *234:74 5.97612e-05
50 *123:8 *234:100 2.91142e-05
51 *124:10 *234:114 0.000138718
52 *128:12 *4569:A1 7.51453e-06
53 *128:12 *234:114 0.000153506
54 *128:26 *234:114 0.000457536
55 *128:26 *234:134 4.2812e-06
56 *130:10 *234:134 5.21024e-05
57 *131:10 *234:128 0.000224895
58 *150:20 *234:8 0.00147351
59 *157:10 *4457:A 5.41288e-05
60 *157:21 *4457:A 0
61 *157:36 *234:22 0
62 *157:72 *234:16 0.000330717
63 *158:12 *234:100 1.01436e-05
64 *161:14 *234:8 0.000472776
65 *161:58 *234:20 4.79641e-05
66 *163:75 *234:8 2.81066e-05
67 *163:75 *234:16 3.26321e-05
68 *163:77 *234:16 0.000205605
69 *163:83 *234:16 0.000321477
70 *177:6 *234:63 0.00097753
71 *186:61 *234:128 0.000114233
72 *190:33 *234:20 0.000397075
73 *194:38 *234:39 0.000580298
74 *194:38 *234:49 1.94812e-05
75 *195:24 *234:16 0.000162803
76 *195:30 *234:16 0
77 *195:46 *4522:C 0.000227208
78 *218:16 *234:63 0
79 *218:33 *4567:B1 5.12254e-05
80 *218:33 *234:63 0
81 *218:67 *234:128 0.000186606
82 *219:67 *234:16 0.000191157
83 *223:66 *4457:A 0.000195248
84 *223:66 *234:22 0.000181013
85 *224:58 *234:128 6.68628e-05
86 *229:29 *234:63 0
87 *229:29 *234:74 0
88 *229:33 *4458:A 2.02517e-05
89 *229:33 *234:100 1.59289e-05
90 *229:42 *4458:A 2.44913e-05
91 *229:42 *234:100 0.000100069
92 *229:92 *234:49 1.01436e-05
93 *229:101 *234:39 0.00121298
94 *229:101 *234:49 5.50106e-05
95 *230:68 *234:49 0.000269775
96 *230:68 *234:63 5.67058e-05
97 *231:10 *234:49 0.000228909
98 *231:23 *234:49 0
*RES
1 *4621:X *234:4 23 
2 *234:4 *234:8 46.1129 
3 *234:8 *234:16 39.1529 
4 *234:16 *234:20 31.82 
5 *234:20 *234:22 2.61 
6 *234:22 *4457:A 49.0614 
7 *234:22 *234:39 31.3436 
8 *234:39 *234:49 36.235 
9 *234:49 *234:63 47.5007 
10 *234:63 *4567:B1 39.0979 
11 *234:63 *234:74 1.90571 
12 *234:74 *234:76 15 
13 *234:76 *4458:A 27.8264 
14 *234:76 *4546:B 23 
15 *234:74 *234:100 20.655 
16 *234:100 *234:114 43.0707 
17 *234:114 *234:128 44.935 
18 *234:128 *234:134 31.5536 
19 *234:134 *4576:A2 23 
20 *234:114 *4545:A 23 
21 *234:100 *4569:A1 23.6214 
22 *234:49 *4477:A1 23 
23 *234:39 *4454:A_N 23 
24 *234:20 *4522:C 41.7286 
*END

*D_NET *235 0.00258751
*CONN
*I *4443:A1 I *D sky130_fd_sc_hd__mux2_8
*I *4638:X O *D sky130_fd_sc_hd__buf_1
*CAP
1 *4443:A1 0.000666858
2 *4638:X 0.00013053
3 *235:8 0.000797387
4 *4443:A1 *249:14 0.000487395
5 *235:8 *249:10 5.50049e-05
6 *4582:A1 *4443:A1 0
7 *56:10 *4443:A1 0.000114083
8 *136:8 *4443:A1 0.00015965
9 *199:36 *4443:A1 0.000141869
10 *199:36 *235:8 1.21972e-05
11 *199:52 *4443:A1 1.4471e-05
12 *221:10 *4443:A1 0
13 *225:56 *4443:A1 0
14 *225:62 *4443:A1 0
15 *226:8 *235:8 8.06804e-06
*RES
1 *4638:X *235:8 39.5743 
2 *235:8 *4443:A1 31.3436 
*END

*D_NET *236 0.00438053
*CONN
*I *4645:A I *D sky130_fd_sc_hd__buf_2
*I *4450:A_N I *D sky130_fd_sc_hd__nand2b_4
*I *4469:A I *D sky130_fd_sc_hd__nand2_2
*I *4482:A I *D sky130_fd_sc_hd__or2_4
*I *4515:A1 I *D sky130_fd_sc_hd__a22o_4
*I *4622:X O *D sky130_fd_sc_hd__clkbuf_1
*CAP
1 *4645:A 0
2 *4450:A_N 0.000246473
3 *4469:A 0
4 *4482:A 8.81109e-05
5 *4515:A1 0
6 *4622:X 0.000138444
7 *236:29 8.81109e-05
8 *236:27 0.00102739
9 *236:14 0.000878529
10 *236:12 9.76133e-05
11 *236:10 0.000138444
12 *4450:B *4450:A_N 0
13 *4515:A2 *236:27 7.42621e-05
14 *4515:B1 *236:27 0.000143655
15 *4515:B2 *236:14 5.70419e-05
16 *4515:B2 *236:27 1.22822e-05
17 *150:10 *236:27 0
18 *169:10 *4482:A 0.000181919
19 *170:8 *236:10 0
20 *170:8 *236:27 0
21 *170:18 *236:10 3.97374e-05
22 *170:46 *4482:A 6.91178e-05
23 *170:46 *236:27 0
24 *186:12 *236:14 0.000141154
25 *186:12 *236:27 0.000315857
26 *195:10 *4450:A_N 2.46345e-05
27 *195:10 *4482:A 5.3304e-05
28 *195:10 *236:27 0.00026599
29 *222:8 *236:14 2.79662e-05
30 *230:22 *236:10 8.26569e-05
31 *230:143 *236:10 6.71408e-06
32 *232:61 *4482:A 0.000181125
*RES
1 *4622:X *236:10 40.8793 
2 *236:10 *236:12 15 
3 *236:12 *236:14 3.00357 
4 *236:14 *4515:A1 23 
5 *236:14 *236:27 32.5036 
6 *236:27 *236:29 15 
7 *236:29 *4482:A 26.0036 
8 *236:29 *4469:A 23 
9 *236:27 *4450:A_N 42.4121 
10 *236:12 *4645:A 23 
*END

*D_NET *237 0.00296077
*CONN
*I *4644:A I *D sky130_fd_sc_hd__buf_2
*I *4523:A I *D sky130_fd_sc_hd__or3_1
*I *4537:C1 I *D sky130_fd_sc_hd__a211o_1
*I *4538:D1 I *D sky130_fd_sc_hd__a2111oi_1
*I *4623:X O *D sky130_fd_sc_hd__clkbuf_1
*CAP
1 *4644:A 5.10142e-05
2 *4523:A 0
3 *4537:C1 0
4 *4538:D1 2.72842e-05
5 *4623:X 4.55235e-05
6 *237:29 0.000152305
7 *237:16 0.000495145
8 *237:10 0.000604139
9 *237:8 0.000385121
10 *4537:B1 *237:29 9.16504e-05
11 *83:16 *237:16 2.01531e-05
12 *84:8 *237:10 8.06039e-05
13 *97:10 *4538:D1 5.50049e-05
14 *97:10 *237:16 5.50106e-05
15 *143:54 *4644:A 0
16 *155:20 *237:8 2.93845e-05
17 *161:58 *4644:A 8.02348e-05
18 *161:58 *237:10 0.000579947
19 *161:58 *237:16 0.000191148
20 *194:74 *237:16 0
21 *194:74 *237:29 1.70989e-05
*RES
1 *4623:X *237:8 38.6214 
2 *237:8 *237:10 7.89214 
3 *237:10 *237:16 21.1729 
4 *237:16 *4538:D1 23.6214 
5 *237:16 *237:29 33.3143 
6 *237:29 *4537:C1 23 
7 *237:10 *4523:A 38 
8 *237:8 *4644:A 39.2014 
*END

*D_NET *238 0.0124529
*CONN
*I *4527:B1 I *D sky130_fd_sc_hd__o21a_1
*I *4544:B2 I *D sky130_fd_sc_hd__a221o_1
*I *4576:A1 I *D sky130_fd_sc_hd__a311o_1
*I *4464:B1 I *D sky130_fd_sc_hd__a21oi_2
*I *4546:A I *D sky130_fd_sc_hd__and4_4
*I *4567:A1 I *D sky130_fd_sc_hd__a21oi_1
*I *4578:A I *D sky130_fd_sc_hd__and3_1
*I *4624:X O *D sky130_fd_sc_hd__buf_1
*CAP
1 *4527:B1 0.0001236
2 *4544:B2 0
3 *4576:A1 3.01953e-05
4 *4464:B1 0
5 *4546:A 2.32701e-05
6 *4567:A1 0.000100777
7 *4578:A 4.96293e-05
8 *4624:X 0.000171029
9 *238:61 0.000298104
10 *238:55 0.000722992
11 *238:40 0.000811352
12 *238:38 0.000242983
13 *238:36 0.00103403
14 *238:22 0.00192879
15 *238:10 0.00118938
16 *4458:A *4546:A 5.3304e-05
17 *4544:A2 *238:36 1.46586e-05
18 *4544:C1 *238:22 5.30121e-05
19 *4545:B *238:36 0.000205604
20 *4546:C *4546:A 5.3304e-05
21 *4568:C *238:61 9.67842e-05
22 *4577:A3 *4578:A 0
23 *4577:A3 *238:40 5.91759e-05
24 *4577:B1 *238:40 9.106e-05
25 *4578:B *238:40 1.41129e-05
26 *64:96 *4578:A 7.84487e-05
27 *64:96 *238:36 7.9713e-05
28 *64:96 *238:40 0.000479713
29 *66:10 *238:36 2.36269e-05
30 *83:22 *4527:B1 0.000177303
31 *83:22 *238:10 0.000429611
32 *94:31 *238:22 0.000926711
33 *94:31 *238:36 9.80125e-05
34 *103:10 *238:36 3.22879e-05
35 *104:14 *238:55 6.33614e-05
36 *105:29 *238:55 8.62876e-05
37 *105:31 *238:36 2.09183e-05
38 *110:6 *238:10 5.3304e-05
39 *123:8 *4567:A1 0.000108681
40 *123:8 *238:55 1.58805e-05
41 *123:8 *238:61 0.000241355
42 *130:10 *238:36 6.08751e-05
43 *133:8 *4578:A 1.94693e-05
44 *133:8 *238:40 6.23522e-05
45 *158:16 *238:61 5.50106e-05
46 *158:43 *238:22 5.08147e-05
47 *159:10 *238:22 0.000141052
48 *161:39 *4527:B1 0.000187446
49 *161:39 *238:10 0.000429611
50 *163:43 *238:36 0.000231714
51 *163:52 *4576:A1 2.4961e-05
52 *163:52 *238:40 1.59094e-05
53 *173:81 *238:10 2.64616e-05
54 *177:10 *238:36 3.47781e-05
55 *177:14 *238:36 5.3304e-05
56 *177:26 *4576:A1 8.17116e-05
57 *177:26 *238:40 0.000135037
58 *218:33 *4567:A1 2.30292e-05
59 *218:41 *4567:A1 5.45887e-05
60 *218:41 *238:61 2.44137e-05
61 *218:52 *238:61 0.000218952
62 *218:67 *238:55 0
63 *224:14 *4527:B1 2.64616e-05
64 *234:114 *238:55 0
65 *234:128 *238:55 0.000212621
*RES
1 *4624:X *238:10 44.4007 
2 *238:10 *238:22 34.5387 
3 *238:22 *238:36 35.8127 
4 *238:36 *238:38 15 
5 *238:38 *238:40 7.29143 
6 *238:40 *4578:A 24.4707 
7 *238:40 *238:55 41.4136 
8 *238:55 *238:61 19.8886 
9 *238:61 *4567:A1 40.175 
10 *238:61 *4546:A 38.6214 
11 *238:55 *4464:B1 23 
12 *238:38 *4576:A1 24.1186 
13 *238:22 *4544:B2 23 
14 *238:10 *4527:B1 41.2314 
*END

*D_NET *239 0.00108762
*CONN
*I *4471:A1 I *D sky130_fd_sc_hd__a41o_1
*I *4671:A I *D sky130_fd_sc_hd__buf_2
*I *4625:X O *D sky130_fd_sc_hd__clkbuf_1
*CAP
1 *4471:A1 0.000108225
2 *4671:A 0.00018826
3 *4625:X 6.93947e-05
4 *239:8 0.00036588
5 *143:33 *4671:A 0.000148688
6 *143:33 *239:8 9.84851e-05
7 *222:10 *4471:A1 6.43005e-05
8 *222:10 *4671:A 4.4382e-05
9 *230:24 *4471:A1 0
10 *230:35 *4471:A1 0
11 *230:35 *4671:A 0
*RES
1 *4625:X *239:8 39.0979 
2 *239:8 *4671:A 42.205 
3 *239:8 *4471:A1 39.9057 
*END

*D_NET *240 0.00918807
*CONN
*I *4478:A1 I *D sky130_fd_sc_hd__a21oi_1
*I *4483:A I *D sky130_fd_sc_hd__nor2_1
*I *4506:A I *D sky130_fd_sc_hd__and3_4
*I *4561:A1 I *D sky130_fd_sc_hd__a32o_1
*I *4535:A1 I *D sky130_fd_sc_hd__a32o_1
*I *4451:A I *D sky130_fd_sc_hd__nand2_1
*I *4626:X O *D sky130_fd_sc_hd__buf_1
*CAP
1 *4478:A1 0
2 *4483:A 0
3 *4506:A 0
4 *4561:A1 0.000273505
5 *4535:A1 0
6 *4451:A 0.000110877
7 *4626:X 0
8 *240:66 0.000140888
9 *240:58 0.000825345
10 *240:51 0.000940763
11 *240:32 0.00145084
12 *240:21 0.000581698
13 *240:8 0.000678427
14 *240:4 0.000906884
15 *64:41 *4561:A1 2.13733e-05
16 *64:41 *240:51 0.000236532
17 *64:45 *4561:A1 1.32939e-05
18 *67:38 *240:51 0.000177909
19 *93:10 *4451:A 5.50049e-05
20 *93:10 *240:8 0.000228909
21 *93:10 *240:21 0.000528158
22 *150:45 *4561:A1 0.000180212
23 *150:45 *240:21 2.70469e-05
24 *150:45 *240:32 0.00017677
25 *166:22 *240:58 0.000957565
26 *176:27 *240:66 0.000141879
27 *186:37 *240:8 9.14454e-05
28 *186:37 *240:58 7.43025e-06
29 *186:45 *4451:A 0.000102093
30 *186:45 *240:8 0.000193575
31 *198:12 *240:66 0.000139647
32 *214:10 *240:51 0
33 *217:8 *240:51 0
*RES
1 *4626:X *240:4 23 
2 *240:4 *240:8 6.35929 
3 *240:8 *4451:A 25.5479 
4 *240:8 *240:21 22.8921 
5 *240:21 *4535:A1 38 
6 *240:21 *240:32 20.075 
7 *240:32 *4561:A1 26.9771 
8 *240:32 *240:51 45.1629 
9 *240:51 *4506:A 23 
10 *240:4 *240:58 11.1029 
11 *240:58 *240:66 33.0036 
12 *240:66 *4483:A 23 
13 *240:58 *4478:A1 23 
*END

*D_NET *241 0.0120582
*CONN
*I *4447:S I *D sky130_fd_sc_hd__mux2_1
*I *4443:S I *D sky130_fd_sc_hd__mux2_8
*I *4460:A I *D sky130_fd_sc_hd__or2_4
*I *4473:S I *D sky130_fd_sc_hd__mux2_8
*I *4462:S I *D sky130_fd_sc_hd__mux2_1
*I *4452:S I *D sky130_fd_sc_hd__mux2_1
*I *4441:A I *D sky130_fd_sc_hd__inv_6
*I *4445:A_N I *D sky130_fd_sc_hd__nand2b_4
*I *4444:B I *D sky130_fd_sc_hd__nand2_2
*I *4446:S I *D sky130_fd_sc_hd__mux2_1
*I *4627:X O *D sky130_fd_sc_hd__clkbuf_2
*CAP
1 *4447:S 0.000218481
2 *4443:S 0.000436343
3 *4460:A 0
4 *4473:S 0.000400762
5 *4462:S 4.56083e-05
6 *4452:S 0.000293901
7 *4441:A 0
8 *4445:A_N 0
9 *4444:B 0.000321125
10 *4446:S 9.40726e-05
11 *4627:X 0
12 *241:97 0.00076959
13 *241:76 0.000657638
14 *241:63 0.000461586
15 *241:59 0.000305726
16 *241:37 0.000801658
17 *241:17 0.000471461
18 *241:15 0.000658093
19 *241:6 0.000581211
20 *241:4 0.000518996
21 *4444:B *252:10 0
22 *4447:S *243:12 0.000157299
23 *4452:S *251:12 0.00021382
24 *4473:S *4473:A1 7.51256e-05
25 *4473:S *249:14 0.000385735
26 *241:17 *252:10 0
27 *241:37 *251:12 0.000681082
28 *241:37 *252:10 0
29 *241:63 *243:12 0.000355699
30 *241:63 *243:20 0
31 *241:76 *249:14 0.000225265
32 *241:97 *243:12 0.0002644
33 *4443:A0 *4443:S 4.04598e-06
34 *4452:A0 *4452:S 0.000141954
35 *4462:A0 *4462:S 5.41288e-05
36 *4462:A0 *241:76 0.000186808
37 *4602:RESET_B *4452:S 0
38 *4602:RESET_B *241:37 0
39 *54:10 *241:37 0
40 *64:16 *4444:B 0
41 *64:16 *241:37 0
42 *143:10 *4473:S 0
43 *143:10 *241:63 0.000219728
44 *143:10 *241:76 0
45 *143:10 *241:97 9.28842e-05
46 *161:14 *4444:B 0.00022295
47 *200:37 *4444:B 0
48 *200:37 *241:17 0
49 *200:37 *241:37 0
50 *201:16 *4447:S 5.70419e-05
51 *204:24 *4473:S 4.04598e-06
52 *207:12 *4447:S 0
53 *207:12 *241:97 0
54 *210:14 *4452:S 0.000267991
55 *221:12 *4446:S 0.000228903
56 *221:12 *241:6 0.00112976
57 *221:12 *241:59 5.3304e-05
*RES
1 *4627:X *241:4 23 
2 *241:4 *241:6 12.5321 
3 *241:6 *4446:S 25.5271 
4 *241:6 *241:15 15 
5 *241:15 *241:17 2.96214 
6 *241:17 *4444:B 45.0429 
7 *241:17 *4445:A_N 38 
8 *241:15 *241:37 11.7657 
9 *241:37 *4441:A 38 
10 *241:37 *4452:S 46.3479 
11 *241:4 *241:59 15.6214 
12 *241:59 *241:63 20.7793 
13 *241:63 *4462:S 24.0979 
14 *241:63 *241:76 21.4421 
15 *241:76 *4473:S 23.9796 
16 *241:76 *4460:A 38 
17 *241:59 *241:97 3.66643 
18 *241:97 *4443:S 21.7632 
19 *241:97 *4447:S 42.785 
*END

*D_NET *242 0.00496142
*CONN
*I *4646:A I *D sky130_fd_sc_hd__clkbuf_2
*I *4600:A I *D sky130_fd_sc_hd__inv_1
*I *4485:A I *D sky130_fd_sc_hd__or2_4
*I *4601:A I *D sky130_fd_sc_hd__inv_1
*I *4500:A I *D sky130_fd_sc_hd__or2_4
*I *4628:X O *D sky130_fd_sc_hd__clkbuf_1
*CAP
1 *4646:A 0
2 *4600:A 0
3 *4485:A 0
4 *4601:A 0
5 *4500:A 0.000145038
6 *4628:X 0.000131944
7 *242:52 0.000185105
8 *242:39 0.000166906
9 *242:24 0.000437106
10 *242:20 0.00105355
11 *242:14 0.00149516
12 *242:12 0.000751879
13 *242:10 0.000131944
14 *4591:A *242:20 0.000228903
15 *4591:B *242:20 2.47815e-05
16 *4609:CLK *242:39 1.69511e-05
17 *5:13 *242:10 0.000141879
18 *60:10 *242:20 1.10036e-05
19 *63:8 *242:52 0
20 *141:10 *242:20 9.8971e-06
21 *233:18 *242:52 2.93845e-05
*RES
1 *4628:X *242:10 40.5271 
2 *242:10 *242:12 15 
3 *242:12 *242:14 13.3555 
4 *242:14 *242:20 13.6559 
5 *242:20 *242:24 2.42357 
6 *242:24 *4500:A 25.5271 
7 *242:24 *242:39 32.9362 
8 *242:39 *4601:A 23 
9 *242:20 *242:52 33.2314 
10 *242:52 *4485:A 23 
11 *242:14 *4600:A 23 
12 *242:12 *4646:A 23 
*END

*D_NET *243 0.00453325
*CONN
*I *4462:A1 I *D sky130_fd_sc_hd__mux2_1
*I *4461:A2 I *D sky130_fd_sc_hd__o21ai_4
*I *4639:X O *D sky130_fd_sc_hd__buf_1
*CAP
1 *4462:A1 0
2 *4461:A2 0
3 *4639:X 0
4 *243:20 0.000226852
5 *243:12 0.00128624
6 *243:6 0.00105939
7 *4447:S *243:12 0.000157299
8 *4462:A0 *243:12 0.000130423
9 *4462:A0 *243:20 5.67058e-05
10 *4602:CLK *243:12 0.000191148
11 *48:10 *243:12 5.80963e-05
12 *54:25 *243:12 0
13 *143:10 *243:20 0
14 *147:10 *243:12 0
15 *161:10 *243:20 0.000250839
16 *207:12 *243:12 0
17 *209:16 *243:12 0.000469121
18 *226:12 *243:12 0
19 *233:12 *243:12 0
20 *233:12 *243:20 2.70469e-05
21 *241:63 *243:12 0.000355699
22 *241:63 *243:20 0
23 *241:97 *243:12 0.0002644
*RES
1 *4639:X *243:6 38 
2 *243:6 *243:12 40.3129 
3 *243:12 *243:20 35.1164 
4 *243:20 *4461:A2 23 
5 *243:12 *4462:A1 23 
*END

*D_NET *244 0.000951616
*CONN
*I *4594:A I *D sky130_fd_sc_hd__xnor2_1
*I *4629:X O *D sky130_fd_sc_hd__dlygate4sd3_1
*CAP
1 *4594:A 5.08245e-05
2 *4629:X 0.000310734
3 *244:10 0.000361558
4 *4500:B *244:10 2.93845e-05
5 *53:8 *244:10 0.00014411
6 *141:16 *4594:A 5.50049e-05
7 *206:10 *244:10 0
*RES
1 *4629:X *244:10 43.6964 
2 *244:10 *4594:A 39.0979 
*END

*D_NET *245 0.00583576
*CONN
*I *4580:B I *D sky130_fd_sc_hd__xor2_1
*I *4442:A I *D sky130_fd_sc_hd__inv_1
*I *4630:X O *D sky130_fd_sc_hd__dlygate4sd3_1
*CAP
1 *4580:B 0.00018354
2 *4442:A 4.565e-05
3 *4630:X 8.09561e-05
4 *245:33 0.00164127
5 *245:12 0.00152687
6 *245:8 0.000104438
7 *245:33 *4582:B1 2.32101e-05
8 *4582:A1 *245:33 1.03836e-05
9 *4602:CLK *245:33 0.000533224
10 *4631:A *245:33 0.000216656
11 *3:13 *245:33 0.000161121
12 *46:8 *4442:A 4.46649e-05
13 *46:8 *245:33 0.000364786
14 *199:8 *4442:A 1.32314e-05
15 *199:8 *245:33 4.17736e-05
16 *199:25 *245:8 0.000113153
17 *199:52 *245:33 0.000182826
18 *200:16 *4580:B 0.000487147
19 *225:56 *245:33 6.08617e-05
*RES
1 *4630:X *245:8 39.5536 
2 *245:8 *245:12 15.4971 
3 *245:12 *4442:A 24.2273 
4 *245:12 *245:33 44.8907 
5 *245:33 *4580:B 43.3857 
*END

*D_NET *246 0.00021887
*CONN
*I *4582:B1 I *D sky130_fd_sc_hd__a21oi_1
*I *4631:X O *D sky130_fd_sc_hd__dlygate4sd3_1
*CAP
1 *4582:B1 2.02371e-05
2 *4631:X 2.02371e-05
3 *4582:A1 *4582:B1 0.00010018
4 *199:52 *4582:B1 5.50049e-05
5 *245:33 *4582:B1 2.32101e-05
*RES
1 *4631:X *4582:B1 47.0979 
*END

*D_NET *247 0.00153773
*CONN
*I *4580:A I *D sky130_fd_sc_hd__xor2_1
*I *4632:X O *D sky130_fd_sc_hd__dlygate4sd3_1
*CAP
1 *4580:A 0.000109912
2 *4632:X 0.000392717
3 *247:10 0.000502629
4 *4603:D *4580:A 0.00010018
5 *5:13 *247:10 0
6 *55:10 *247:10 3.7285e-05
7 *200:16 *4580:A 0.000283793
8 *225:50 *247:10 1.13227e-05
9 *225:56 *247:10 9.98915e-05
*RES
1 *4632:X *247:10 43.51 
2 *247:10 *4580:A 41.8529 
*END

*D_NET *248 0.00167255
*CONN
*I *4587:A I *D sky130_fd_sc_hd__xor2_1
*I *4633:X O *D sky130_fd_sc_hd__dlygate4sd3_1
*CAP
1 *4587:A 0.000129728
2 *4633:X 0.000489085
3 *248:10 0.000618813
4 *4606:CLK *248:10 5.3656e-05
5 *5:13 *248:10 0
6 *50:10 *4587:A 5.67058e-05
7 *50:10 *248:10 8.51432e-05
8 *137:8 *248:10 0
9 *203:14 *248:10 0.000134065
10 *208:8 *4587:A 9.58714e-05
11 *208:10 *248:10 9.48381e-06
*RES
1 *4633:X *248:10 46.6793 
2 *248:10 *4587:A 40.5271 
*END

*D_NET *249 0.00623784
*CONN
*I *4473:A1 I *D sky130_fd_sc_hd__mux2_8
*I *4640:X O *D sky130_fd_sc_hd__buf_1
*CAP
1 *4473:A1 6.03319e-05
2 *4640:X 0.000303144
3 *249:14 0.00128235
4 *249:10 0.00152516
5 *4443:A1 *249:14 0.000487395
6 *4473:S *4473:A1 7.51256e-05
7 *4473:S *249:14 0.000385735
8 *56:10 *249:14 0.000116314
9 *143:10 *249:14 0
10 *199:36 *249:10 0.000321966
11 *199:36 *249:14 0.000166504
12 *203:33 *249:14 0.000253061
13 *207:12 *249:14 0.000885437
14 *207:25 *249:14 9.50414e-05
15 *225:62 *249:14 0
16 *226:12 *249:14 0
17 *235:8 *249:10 5.50049e-05
18 *241:76 *249:14 0.000225265
*RES
1 *4640:X *249:10 44.8357 
2 *249:10 *249:14 48.5986 
3 *249:14 *4473:A1 1.50179 
*END

*D_NET *250 0.00111762
*CONN
*I *4589:B1 I *D sky130_fd_sc_hd__a21oi_1
*I *4634:X O *D sky130_fd_sc_hd__dlygate4sd3_1
*CAP
1 *4589:B1 0
2 *4634:X 0.000101495
3 *250:6 0.000101495
4 *4588:A *250:6 0.000583818
5 *4588:C *250:6 0.000182826
6 *4589:A2 *250:6 9.84794e-05
7 *204:16 *250:6 4.95081e-05
*RES
1 *4634:X *250:6 28.3857 
2 *250:6 *4589:B1 23 
*END

*D_NET *251 0.00476427
*CONN
*I *4487:A2 I *D sky130_fd_sc_hd__o21a_1
*I *4486:A2 I *D sky130_fd_sc_hd__o21ai_4
*I *4641:X O *D sky130_fd_sc_hd__buf_1
*CAP
1 *4487:A2 0.000118482
2 *4486:A2 0
3 *4641:X 0.000308493
4 *251:12 0.000949698
5 *251:8 0.00113971
6 *251:12 *252:10 0
7 *4452:A0 *251:12 0
8 *4452:S *251:12 0.00021382
9 *4486:B1 *4487:A2 0
10 *4487:B1 *4487:A2 5.43443e-05
11 *4602:RESET_B *251:12 0
12 *54:65 *4487:A2 0.000506285
13 *64:16 *251:12 0
14 *185:12 *4487:A2 0.000131304
15 *199:25 *251:12 0
16 *199:36 *251:8 0.000661051
17 *241:37 *251:12 0.000681082
*RES
1 *4641:X *251:8 45.2914 
2 *251:8 *251:12 32.7521 
3 *251:12 *4486:A2 23 
4 *251:12 *4487:A2 28.4064 
*END

*D_NET *252 0.00433772
*CONN
*I *4501:A2 I *D sky130_fd_sc_hd__o21ai_4
*I *4642:X O *D sky130_fd_sc_hd__buf_1
*CAP
1 *4501:A2 7.44329e-05
2 *4642:X 0
3 *252:10 0.00165831
4 *252:6 0.00158388
5 *4444:B *252:10 0
6 *4501:B1 *4501:A2 0.000156058
7 *4602:RESET_B *252:10 0.000187895
8 *54:10 *252:10 0.000205897
9 *54:33 *252:10 0.000201464
10 *143:16 *4501:A2 0.000269775
11 *185:12 *252:10 0
12 *241:17 *252:10 0
13 *241:37 *252:10 0
14 *251:12 *252:10 0
*RES
1 *4642:X *252:6 38 
2 *252:6 *252:10 47.8943 
3 *252:10 *4501:A2 26.5007 
*END

*D_NET *253 0.00337068
*CONN
*I *4654:A I *D sky130_fd_sc_hd__clkbuf_1
*I *4508:X O *D sky130_fd_sc_hd__a32o_1
*CAP
1 *4654:A 0
2 *4508:X 0.000554757
3 *253:16 0.000591871
4 *253:10 0.00114663
5 *182:8 *253:10 0.000488848
6 *211:16 *253:10 0
7 *211:16 *253:16 0.000416535
8 *213:18 *253:10 0
9 *214:16 *253:16 5.47927e-05
10 *215:16 *253:10 0.000117249
*RES
1 *4508:X *253:10 48.4607 
2 *253:10 *253:16 28.5057 
3 *253:16 *4654:A 23 
*END
